36
HYWZIAVPBSTISZ-UHFFFAOYSA-N optimised
O        4.028973     -1.220297      1.720345
S        4.963132     -0.859817      0.689845
O        5.918412      0.219161      0.789198
O        5.738766     -2.228251      0.293598
C        4.001758     -0.630831     -0.942130
F        3.118430     -1.645130     -1.059829
F        4.930367     -0.742762     -1.934305
C        3.274911      0.744078     -1.171049
F        2.756491      0.699062     -2.429493
F        4.223170      1.717724     -1.135895
C        2.138685      1.218171     -0.174602
F        1.728651      2.427305     -0.651704
F        2.714871      1.398087      1.041439
C        0.867435      0.293704     -0.012093
F        0.498380     -0.167191     -1.237313
F        1.207676     -0.757344      0.774522
C       -0.368386      1.045639      0.625423
F        0.090827      1.828139      1.643250
F       -0.930723      1.846826     -0.314427
C       -1.517025      0.167239      1.280758
F       -2.429273      1.058758      1.758427
F       -0.977426     -0.491598      2.340285
C       -2.296992     -0.927893      0.450919
F       -3.129538     -1.543855      1.336255
F       -1.381820     -1.841781      0.022974
C       -3.161621     -0.560319     -0.820197
F       -3.637855     -1.750246     -1.281772
F       -2.327655     -0.042388     -1.762623
C       -4.391160      0.430259     -0.737519
F       -4.924767      0.437252     -1.991736
F       -3.941287      1.680185     -0.455670
C       -5.568885      0.105510      0.250584
F       -5.196252      0.289140      1.530562
F       -5.997904     -1.160854      0.092520
F       -6.589100      0.944925     -0.019117
H        6.566732     -1.980613     -0.170982
