88
nitrocellulose conformer_018_frame268 from conformer_018_frame268.cosmo (coord_rad bohr -> angstrom)
C     -0.8233014862     2.4953583372    -0.8329160879
C     -0.4119852677     1.0288439778    -0.8898383161
H     -0.7262298071     0.5975220058    -1.8608612237
C     -1.0614164186     0.2213395011     0.2610854288
H     -0.7993408475     0.6962745193     1.2240962655
C     -0.5089644494    -1.2292973930     0.2492582711
H     -0.9930893519    -1.8003400430    -0.5550680828
C      1.0338566207    -1.2643199137     0.1062792377
H      1.4653530696    -0.8743054377     1.0421569403
C      1.5088854828    -0.3608565253    -1.0644209903
H      1.0799989823    -0.6927681797    -2.0230382101
O      1.0167320660     0.9524667449    -0.7546489067
O      2.8873297144    -0.3290131758    -1.3096254754
C      3.8789933211    -0.0310057911    -0.2938749286
H      3.4723009950    -0.0962384982     0.7247332975
C      4.4474627143     1.4044527743    -0.5384145631
H      4.6041650502     1.5254829146    -1.6292161810
O      5.6897541416     1.5773330914     0.1654594117
C      6.7152069120     0.7602017171    -0.3756207461
H      6.8027639702     0.9068072995    -1.4700732416
C      6.4101262565    -0.7081822621    -0.0116188562
H      6.4936092060    -0.8212250456     1.0787825621
C      5.0000564098    -1.0814605077    -0.5279072858
H      5.0698032834    -1.2157378858    -1.6213116915
O      4.6328690775    -2.4367004276    -0.1444311134
N      4.4932685801    -2.7185825867     1.3018203631
O      4.5817351602    -1.7831582194     2.0740072562
O      4.2997440757    -3.8899047804     1.5099010264
O      7.3301548120    -1.5882044885    -0.6872178046
N      8.3949134859    -2.1955221995     0.1794689790
O      8.3689710360    -1.9466034297     1.3620954770
O      9.1427704408    -2.8770332768    -0.4756332328
O      7.9252925707     1.0804159552     0.2760556936
N      8.6717694627     2.2625062836    -0.3430946696
O      8.2089783052     2.7360994840    -1.3505399149
O      9.6474163328     2.5344404474     0.3031774094
C      3.5365482039     2.5470577500    -0.1055785482
O      3.2771830064     2.3531320797     1.3172506075
N      2.4520385499     3.3861475428     1.9016668007
O      2.0695316455     4.2815403559     1.1697394616
O      2.2495030912     3.2069818986     3.0850015913
O      1.5525051887    -2.6219687959     0.1122190000
N      1.2501830748    -3.4766613333    -1.0650797918
O      1.7261500801    -4.5767990991    -0.9439669758
O      0.5914057099    -2.9922263739    -1.9622676872
O     -0.8602566865    -1.7970405600     1.5384111420
N     -1.3727257660    -3.1949706374     1.5223578689
O     -1.4570294774    -3.7534133170     0.4502138929
O     -1.6419630914    -3.5711208412     2.6352540939
O     -2.4830841140     0.2585942494     0.0567701804
C     -3.3034708517    -0.0265573486     1.1933857464
H     -2.6948334544    -0.0648676100     2.1087173932
C     -4.3432167434     1.1140708424     1.3411069924
H     -3.8411535878     2.0825064698     1.2046709245
C     -5.5402401447     1.0045945982     0.3701218627
H     -6.3587438686     1.6596224803     0.7069121395
C     -6.0714106979    -0.4431940648     0.2392994372
H     -6.7331724029    -0.5164911532    -0.6380478593
C     -4.9533862230    -1.5009390209     0.1279305565
H     -5.3778875026    -2.4820564369     0.3906427307
O     -3.9065816877    -1.3057149323     1.1061009790
C     -4.3697711587    -1.6175497421    -1.2992650695
O     -5.4690929715    -2.1557753358    -2.0895245730
N     -5.1348687159    -2.3403793691    -3.4967355188
O     -4.0069031376    -2.0500312160    -3.8463258787
O     -6.0660282313    -2.7764841745    -4.1390858210
O     -6.8545590430    -0.6591526013     1.4456718044
N     -8.0154447466    -1.5689242651     1.2697308338
O     -8.2042406720    -2.0324762967     0.1653590577
O     -8.6242273952    -1.7119533190     2.3026041615
O     -5.0540029040     1.4694629828    -0.9100229509
N     -6.0634639818     2.2528397101    -1.7121565071
O     -5.5950725261     2.6119672734    -2.7615384150
O     -7.1570835738     2.4118178238    -1.2221151717
O     -4.8073094617     0.9887836312     2.7092872858
N     -5.2252540579     2.2744691831     3.3340692775
O     -5.1651535383     3.2722014701     2.6487919625
O     -5.5736382323     2.1147511076     4.4777953898
O     -0.3163004206     3.0862570953    -2.0631310678
N     -0.6576356203     4.4898612085    -2.2089290628
O     -1.3128102538     5.0044089124    -1.3217171030
O     -0.2240245435     4.9667522157    -3.2368558246
H     -1.9201938626     2.5678986333    -0.8055739955
H     -0.3820136339     3.0021212344     0.0406745814
H      2.5939267824     2.5126911243    -0.6678555604
H      4.0562763103     3.5042340521    -0.2652277854
H     -4.0437534491    -0.6528454156    -1.7113595221
H     -3.5303985610    -2.3301686220    -1.2898080825
