88
nitrocellulose conformer_010_frame190 from conformer_010_frame190.cosmo (coord_rad bohr -> angstrom)
C     -0.6857120218    -2.2872271848    -1.0593643960
C     -0.3720263698    -0.8788163470    -0.5504596287
H     -0.3576982532    -0.8619267655     0.5561090714
C     -1.4393524925     0.1219351441    -1.0645662640
H     -1.5006968037     0.0314152246    -2.1654912819
C     -1.0181281892     1.5768059484    -0.7141064758
H     -1.2364516083     1.7800392682     0.3433536635
C      0.4656758886     1.8338761476    -1.0605995526
H      0.5794715934     1.8375511447    -2.1577504848
C      1.3993273005     0.7212222335    -0.5279896242
H      1.4080955492     0.6586528823     0.5735270199
O      0.9076263954    -0.5096637076    -1.0819578360
O      2.6718921480     0.9451440409    -1.0637469610
C      3.8303995435     0.5416126076    -0.3008165274
H      3.8243123890     1.0306747648     0.6857019757
C      5.0199486094     1.0862232678    -1.1384102838
H      4.8454512008     0.8108357182    -2.1988267106
O      6.2594914275     0.5317712996    -0.6792033165
C      6.3162600098    -0.8644417492    -0.9387203600
H      6.0913527133    -1.0772127370    -2.0016694567
C      5.3383105746    -1.5863975546     0.0163348321
H      5.7198875052    -1.4749840644     1.0408723441
C      3.9146951433    -0.9984941814    -0.1368459902
H      3.4543771123    -1.4508214926    -1.0309221559
O      3.0115408957    -1.5082503602     0.8940315978
N      3.3111913859    -1.1553049056     2.3048933880
O      4.2678777764    -0.4390801120     2.5237670794
O      2.5154937835    -1.6540011348     3.0613235554
O      5.2378391972    -2.9794823456    -0.3373428759
N      5.9325744502    -3.9324227159     0.5931267892
O      6.4585587944    -3.4731376808     1.5798196712
O      5.8419811961    -5.0652033632     0.1915009106
O      7.6036104240    -1.3248550535    -0.5930842081
N      8.6389454213    -1.1731700447    -1.7100307709
O      8.2412124497    -0.7708809348    -2.7744510104
O      9.7286041094    -1.5024844436    -1.3263650442
C      5.1303141916     2.6071505876    -1.1076537324
O      5.3356120591     2.9871911843     0.2838668192
N      5.4323247478     4.4207268895     0.4829076918
O      5.3417536938     5.1307648919    -0.5012529157
O      5.5982214704     4.7168218469     1.6476518861
O      0.8856850322     3.1956699275    -0.7559416868
N      0.9627209846     3.5799288301     0.6666536111
O      1.2944172191     4.7329631351     0.7978625193
O      0.6996340267     2.7351132838     1.4992995258
O     -1.8414131789     2.4302168751    -1.5586773213
N     -2.3462034849     3.6793016454    -0.9355728052
O     -2.0143444989     3.9169813772     0.2049892074
O     -3.0475134157     4.2951407258    -1.7005763981
O     -2.6892329360    -0.2543521501    -0.4657155655
C     -3.8739447719     0.2913793550    -1.0607606829
H     -3.6215529672     0.7702713640    -2.0178601029
C     -4.8718394388    -0.8663918798    -1.3314528505
H     -4.3126182182    -1.7409804486    -1.6950327965
C     -5.7318228538    -1.2692347060    -0.1143161292
H     -6.5795642674    -1.8820028034    -0.4586533668
C     -6.2351464244    -0.0503638143     0.6906554348
H     -6.6577146392    -0.3950131204     1.6465733345
C     -5.1328239323     1.0016759353     0.9352627658
H     -5.6363136910     1.9378195931     1.2213489223
O     -4.4271628664     1.3393487904    -0.2807190336
C     -4.2263157991     0.5827431949     2.1067809530
O     -3.5407805570     1.8103407889     2.4928309884
N     -2.6748218699     1.6452346641     3.6471034649
O     -2.6022144727     0.5352996020     4.1413988590
O     -2.1289752481     2.6797682552     3.9694492944
O     -7.2564121295     0.6609924821    -0.0611919501
N     -8.6192152154     0.1019777893     0.0808280295
O     -8.7513149854    -0.8765719684     0.7862311752
O     -9.4283859614     0.7369250896    -0.5515487468
O     -4.9219608465    -2.0500514449     0.7907845706
N     -5.3165080843    -3.5093974736     0.9039167105
O     -4.6197232208    -4.0765849132     1.7040369450
O     -6.2275829573    -3.8958710340     0.2125006910
O     -5.8225679401    -0.4446149023    -2.3442849207
N     -5.4168681906    -0.7763377805    -3.7416993300
O     -4.3559351797    -1.3402438299    -3.8989367601
O     -6.2495353383    -0.4149594557    -4.5363405330
O      0.2869452284    -3.2712878342    -0.6208099040
N      0.0469605034    -3.8087385094     0.7153609978
O     -0.9119010145    -3.3875128648     1.3341307308
O      0.8735743309    -4.6380295276     1.0285917438
H     -1.6986477871    -2.5844151726    -0.7549367077
H     -0.5935399552    -2.3271286889    -2.1566848684
H      4.1962506147     3.0490439917    -1.4869543850
H      5.9859652314     2.9336411516    -1.7189039554
H     -4.8416249014     0.2266005995     2.9485596321
H     -3.4902784468    -0.1808674418     1.8220306808
