88
nitrocellulose conformer_006_frame105 from conformer_006_frame105.cosmo (coord_rad bohr -> angstrom)
C      1.0008617207     2.3101957127    -0.7340279876
C      0.6028763174     0.9110799576    -0.2746326430
H      0.6260657337     0.8598437560     0.8316742749
C      1.5832413334    -0.1418377710    -0.8551415325
H      1.5945680203    -0.0426659909    -1.9567983730
C      1.0877737795    -1.5655203655    -0.4840344125
H      1.3387995810    -1.7771925987     0.5642617562
C     -0.4208437461    -1.7310881240    -0.7683871572
H     -0.5698364843    -1.7582313101    -1.8609007248
C     -1.2863762258    -0.5563227552    -0.2467611370
H     -1.3276714650    -0.5098031750     0.8557721364
O     -0.7155727612     0.6473980192    -0.7761249623
O     -2.5577412586    -0.7042232019    -0.8193862701
C     -3.7254007125    -0.3774489196    -0.0388546188
H     -3.6067446433    -0.7273516561     0.9996459253
C     -4.8770886311    -1.1601047072    -0.7268246518
H     -4.8219796476    -0.9693457780    -1.8169456183
O     -6.1468338263    -0.7371977608    -0.2129437228
C     -6.4361806387     0.5949756676    -0.6170929064
H     -6.3346383193     0.7041893994    -1.7136604781
C     -5.4969470826     1.5536875519     0.1517040985
H     -5.7740897207     1.5218170265     1.2146509549
C     -4.0179629569     1.1473487399    -0.0675601066
H     -3.7070867512     1.5164703119    -1.0593152415
O     -3.1197558297     1.9231330647     0.7822383170
N     -3.2364190471     1.7443007384     2.2489226845
O     -4.0471082312     0.9391197837     2.6637982974
O     -2.4672269208     2.4583708906     2.8428124937
O     -5.6275746262     2.8913452121    -0.3669366326
N     -6.3645841444     3.8576677715     0.5160375179
O     -6.7371536071     3.4628004221     1.5960452031
O     -6.4655149403     4.9334499947    -0.0181253423
O     -7.7429988195     0.9153009165    -0.1951440997
N     -8.8360070911     0.5313953696    -1.1966970344
O     -8.4756237849     0.0858310287    -2.2569780747
O     -9.9248793180     0.7559548875    -0.7420180219
C     -4.7432735390    -2.6600056192    -0.4703916474
O     -5.6671152140    -3.4001849280    -1.3082048324
N     -6.8867747439    -3.8748778771    -0.6362290129
O     -6.9780882544    -3.7301274884     0.5649997726
O     -7.6525287886    -4.3893393955    -1.4219722423
O     -0.9186756711    -3.0521062027    -0.4058429706
N     -0.9394798731    -3.3974148482     1.0349122191
O     -1.3389831963    -4.5212268598     1.2142748551
O     -0.5756376657    -2.5516206739     1.8268107411
O      1.8207276590    -2.4713741411    -1.3569146993
N      2.2719057841    -3.7476767857    -0.7464993145
O      1.9738534357    -3.9583344444     0.4085660195
O      2.8999114660    -4.4100089078    -1.5357076295
O      2.8800610042     0.1455621457    -0.3120586368
C      4.0038077703    -0.4474968505    -0.9775963958
H      3.6762480891    -0.9085096699    -1.9206155666
C      5.0324893902     0.6697487145    -1.2973744260
H      4.4901481436     1.5616271389    -1.6446349560
C      5.9549421521     1.0404216081    -0.1160208119
H      6.8047442346     1.6323247867    -0.4893337736
C      6.4557677910    -0.1992590762     0.6586231591
H      6.9258466490     0.1277218568     1.5982677255
C      5.3369369205    -1.2241630523     0.9437223829
H      5.8296166155    -2.1779425324     1.1875467302
O      4.5559703033    -1.5223016928    -0.2356800461
C      4.5056564075    -0.8030079854     2.1692179235
O      3.8212376930    -2.0234320990     2.5788277832
N      3.0137695071    -1.8556822483     3.7739698011
O      2.9840899915    -0.7498905999     4.2819388004
O      2.4655223213    -2.8840280481     4.1117925844
O      7.4257605398    -0.9282086866    -0.1402504785
N      8.8100581100    -0.4076527360    -0.0438347994
O      8.9942207037     0.5616841974     0.6621126689
O      9.5766545192    -1.0604681965    -0.7094674933
O      5.2200413164     1.8164340272     0.8568273158
N      5.3960990595     3.3086139168     0.7344278009
O      4.7753608660     3.8871849574     1.5881735417
O      6.1011483210     3.7105871458    -0.1611604468
O      5.9232041822     0.2129402377    -2.3469244737
N      5.4783181003     0.5704938401    -3.7278025118
O      4.4374440948     1.1799458022    -3.8412541540
O      6.2638163493     0.1783574356    -4.5547970186
O      0.2231620117     3.2335934958     0.0797169221
N      0.4689313512     4.6260089390    -0.2396249127
O      1.2697686041     4.8686693696    -1.1241724018
O     -0.1845834347     5.3822945968     0.4491210872
H      2.0735495454     2.4692112059    -0.5539520509
H      0.7610328178     2.4499933853    -1.8007425875
H     -4.9142459828    -2.9001952026     0.5907867194
H     -3.7455164728    -3.0015059584    -0.7805523255
H      5.1727147984    -0.4676873440     2.9796763796
H      3.7692020041    -0.0232910005     1.9327552259
