27
OYGQVDSRYXATEL-UHFFFAOYSA-N optimised
O        3.755080      0.700147      1.528999
S        3.922094     -0.346702      0.546320
O        3.752973     -1.749536      0.808713
O        5.376577     -0.176377     -0.153554
C        2.853850      0.091595     -0.964968
F        3.102830      1.390295     -1.267777
F        3.282107     -0.683412     -1.989642
C        1.295832     -0.147689     -0.850597
F        1.091582     -1.486352     -0.771967
F        0.769373      0.313514     -2.022124
C        0.557491      0.547837      0.344532
F        0.975392      1.843082      0.412460
F        0.909706     -0.087239      1.491067
C       -1.030469      0.629581      0.286031
F       -1.374565      1.473795     -0.722388
F       -1.399109      1.191820      1.471193
C       -1.823530     -0.710906      0.104415
F       -1.298412     -1.645636      0.943952
F       -1.666633     -1.133867     -1.178460
C       -3.377067     -0.685407      0.420799
F       -3.834956     -1.921734      0.076670
F       -3.555068     -0.513239      1.755434
C       -4.278097      0.361536     -0.322304
F       -4.071000      0.316470     -1.652822
F       -4.031105      1.609265      0.121648
F       -5.570073      0.069519     -0.074657
H        5.665200      0.749641     -0.005696
