155
polyurethane PU_conf_1200 from PU_conf_1200.cosmo (coord_rad bohr -> angstrom)
O     20.3251501491     8.2243143260     2.4537607320
C     21.3859842158     7.3711456043     2.9351685557
C     22.2042262474     6.7245146018     1.8065451098
C     21.4297329043     5.7265008795     0.9210304280
C     21.0954154710     4.4304167864     1.6526534172
O     20.4002137624     3.5679780424     0.7032181661
C     19.9876814109     2.3610114490     1.1933428198
O     20.1640471223     1.9810451956     2.3471688847
N     19.3574886688     1.6699932627     0.1862445807
C     18.7777813079     0.3874724118     0.2389658906
C     18.7670034145    -0.4383455434     1.3780194806
C     18.1738580369    -1.7049226383     1.3375482380
C     17.5796477030    -2.1963159484     0.1655537465
C     17.5941964436    -1.3770107942    -0.9772537470
C     18.1857902634    -0.1160013019    -0.9383756347
C     16.9177653221    -3.5709412000     0.1358930572
C     15.3965706218    -3.5000530410     0.2307044951
C     14.5939248773    -3.6394773124    -0.9114124464
C     13.1995028557    -3.5550148073    -0.8356638779
C     12.5583696566    -3.3244869363     0.3948406269
C     13.3706386531    -3.1933893031     1.5406309964
C     14.7597270367    -3.2732595580     1.4637959525
N     11.1627205856    -3.2294731721     0.5643673683
C     10.1806072190    -3.3686798220    -0.3829567370
O     10.3359222489    -3.6067707121    -1.5758227703
O      8.9649096752    -3.1875672032     0.2279888209
C      7.7928520501    -3.3000610731    -0.6193314727
C      7.2705866589    -4.7383384222    -0.6140948229
O      6.0432028872    -4.7209621595    -1.3492818519
C      5.5308696245    -6.0251140104    -1.6594055938
C      4.9413770624    -6.7797808349    -0.4600916488
O      3.8561405268    -6.1084336058     0.1937473288
C      2.6225108179    -6.1711309372    -0.5299154274
C      1.5183337447    -5.5613698081     0.3174441316
O      1.6959479329    -4.1313553858     0.5159820127
C      1.0881973407    -3.3095576718    -0.3969676946
O      0.4026493902    -3.6934148310    -1.3395289840
N      1.3735124239    -2.0088727242    -0.0654761115
C      0.9484241114    -0.8305707842    -0.7105476490
C      0.2313183644    -0.7979321980    -1.9225904968
C     -0.1393452277     0.4174803351    -2.5035762338
C      0.2047771499     1.6433379815    -1.9104452354
C      0.9303389991     1.6157324130    -0.7081665702
C      1.2952083602     0.4022597784    -0.1241179173
C     -0.2172687895     2.9665109076    -2.5418579054
C     -1.6901543885     3.2921546058    -2.3129215841
C     -2.1466182448     3.7323922002    -1.0576479727
C     -3.4956845630     4.0135087582    -0.8522620935
C     -4.4488398501     3.8604692059    -1.8814112020
C     -3.9864732703     3.4260122608    -3.1371116566
C     -2.6312885891     3.1442900740    -3.3424857242
N     -5.7900652771     4.1739889113    -1.5876523783
C     -6.8843815648     4.0951632718    -2.4165554606
O     -6.8928844002     3.7307526871    -3.5890405398
O     -7.9888359016     4.4944095956    -1.7211578568
C     -9.2467312712     4.4756222959    -2.4642991019
C    -10.3665338039     4.8500953931    -1.5015845931
C    -10.6113226263     3.8163788801    -0.3891653551
C    -11.7722924755     4.2150451298     0.5357677091
C    -11.9948803267     3.2322418343     1.7089778056
C    -12.3639760633     1.8242324821     1.2697809169
O    -11.7157964096     0.8163650496     1.5225858501
O    -13.5138756258     1.8183630278     0.5497190358
C    -13.9989341410     0.5240460934     0.0575515383
C    -14.9481036772    -0.1375607143     1.0576453366
C    -16.2261286376     0.6673573969     1.3732191074
C    -17.2080552873     0.8477075357     0.1980647835
C    -17.8457579413    -0.4625766560    -0.3310913637
C    -18.6766729688    -1.1833044250     0.7161753400
O    -18.3763909194    -2.2413597824     1.2555221993
O    -19.8100644213    -0.4981708684     1.0085679047
C    -20.6827440825    -1.0819441924     2.0288153493
C    -21.8966089990    -0.1689539813     2.1641434503
C    -22.8976824916    -0.6776350969     3.2253032869
C    -23.7226183766    -1.9284819983     2.8530015791
C    -24.9112141496    -1.6653377694     1.8923292687
C    -24.5528812302    -1.3394575024     0.4500812792
O    -24.8790913021    -0.3239416701    -0.1404347429
O    -23.8276282913    -2.2801559924    -0.2258262084
H     19.6233103337     7.6543182158     2.0930319334
H     22.0425339846     8.0263981501     3.5319460143
H     20.9776279830     6.6030546960     3.6221342772
H     23.0775403299     6.2207754841     2.2636384741
H     22.6053993652     7.5318781164     1.1672005174
H     22.0370877933     5.4832328439     0.0316527022
H     20.4983310499     6.1855955827     0.5403136003
H     20.4402702317     4.5939352703     2.5251380423
H     22.0095978952     3.9187361867     1.9991576153
H     19.3052029811     2.1557117587    -0.7098662228
H     19.2251363136    -0.0779387181     2.3003750279
H     18.1873975216    -2.3266816991     2.2399484255
H     17.1506657058    -1.7305903698    -1.9153099365
H     18.1897702143     0.5022017659    -1.8439935065
H     17.3096829532    -4.1801364198     0.9694696904
H     17.1986088391    -4.0940553184    -0.7952486231
H     15.0627819081    -3.8277825210    -1.8838337336
H     12.5960052514    -3.6678317062    -1.7376528689
H     12.8970201381    -3.0230556015     2.5148881311
H     15.3526302295    -3.1710523754     2.3802053672
H     10.8320779013    -3.0315851413     1.5094713749
H      7.0479631722    -2.6210834958    -0.1784044685
H      8.0341822070    -2.9776751183    -1.6433241793
H      7.1219866595    -5.0722936543     0.4319032970
H      8.0022605232    -5.4161483393    -1.0980762308
H      6.3289229914    -6.6588058568    -2.1014940979
H      4.7623714819    -5.8597733209    -2.4320612817
H      5.7083187245    -6.9249926093     0.3186454870
H      4.6238519522    -7.7846464325    -0.8122128895
H      2.3517209370    -7.2284091942    -0.7359195825
H      2.6868972012    -5.6404378086    -1.5003245903
H      0.5441603504    -5.7485116762    -0.1604140037
H      1.5288176621    -5.9898746778     1.3307160667
H      1.9489603888    -1.8883585652     0.7689176679
H     -0.0446207867    -1.7388795356    -2.4013070746
H     -0.6956366874     0.4037559247    -3.4485253882
H      1.2221486743     2.5547211121    -0.2249299199
H      1.8607011595     0.4085587878     0.8152625910
H     -0.0186006044     2.9354738222    -3.6277993589
H      0.4077132896     3.7796001749    -2.1317520003
H     -1.4404550713     3.8691294718    -0.2302981500
H     -3.8261405585     4.3594623613     0.1343828478
H     -4.7000691256     3.3050564510    -3.9535457772
H     -2.3014912277     2.8113214817    -4.3331870658
H     -5.9839579102     4.4974528593    -0.6392286072
H     -9.3941081727     3.4666921227    -2.8867734926
H     -9.1734872224     5.1941222657    -3.2980950538
H    -11.2833716861     4.9688894960    -2.1099734575
H    -10.1509276032     5.8423104564    -1.0623544190
H     -9.6895021301     3.6902830967     0.2081677014
H    -10.8206078360     2.8324819779    -0.8536528924
H    -12.7070252702     4.3018017982    -0.0468937571
H    -11.5738864179     5.2139107308     0.9660798956
H    -12.8119686763     3.6093313371     2.3504321449
H    -11.0875453013     3.1491775567     2.3268705507
H    -13.1324817697    -0.1231985728    -0.1489459027
H    -14.5024433347     0.7704596523    -0.8900804194
H    -14.3939097162    -0.3309601661     1.9936474679
H    -15.2053858686    -1.1318050622     0.6467813793
H    -15.9382050950     1.6679066046     1.7433496980
H    -16.7463675082     0.1771694254     2.2173735535
H    -16.7040191664     1.3409934378    -0.6526873019
H    -18.0162350146     1.5331080862     0.5072917978
H    -18.4997698802    -0.2209608994    -1.1874731678
H    -17.0782147718    -1.1701894036    -0.6780732333
H    -20.9501834310    -2.1038149123     1.7131039169
H    -20.1213559999    -1.1518750633     2.9765232449
H    -22.3812038239    -0.0570903383     1.1779867671
H    -21.5484721176     0.8390233897     2.4523110902
H    -22.3441919933    -0.8896788018     4.1593076217
H    -23.5970395179     0.1420558058     3.4720245939
H    -24.1563107731    -2.3472929026     3.7779598724
H    -23.0692535209    -2.7287537105     2.4568536743
H    -25.5228512585    -0.8300317539     2.2650348837
H    -25.5549084483    -2.5654808031     1.8684747643
H    -23.6481266447    -3.0531405672     0.3478919539
