155
polyurethane PU_conf_300 from PU_conf_300.cosmo (coord_rad bohr -> angstrom)
O    -15.5679613803    12.2504609662    -2.0150849935
C    -15.8342572982    10.9853627259    -1.3734562465
C    -14.6539503271    10.5103184256    -0.5148135354
C    -14.9567624356     9.2486590994     0.3211404407
C    -15.1432797000     7.9992984412    -0.5343705362
O    -15.3091292071     6.8763109861     0.3828374181
C    -15.5032345222     5.6568311167    -0.2023849010
O    -15.5400675919     5.4635771132    -1.4140811775
N    -15.6450269634     4.7136114614     0.7871285070
C    -15.8642026103     3.3291187568     0.6495984123
C    -15.9493838173     2.5560958631     1.8251538689
C    -16.1772252742     1.1810139775     1.7783567034
C    -16.3364369518     0.5216192070     0.5479048995
C    -16.2603042366     1.2873950438    -0.6263592365
C    -16.0346668630     2.6663400746    -0.5811598545
C    -16.5583989849    -0.9869903559     0.4896852210
C    -15.2591033617    -1.7661090638     0.3064888194
C    -14.4507894156    -2.0941592441     1.4067231213
C    -13.2490520528    -2.7893885798     1.2435505101
C    -12.8050288213    -3.1690958263    -0.0374990954
C    -13.6238541035    -2.8439485037    -1.1371201540
C    -14.8248100115    -2.1542710887    -0.9720303290
N    -11.6175744900    -3.8843447779    -0.2905942522
C    -10.6405015254    -4.2499495660     0.6008463695
O    -10.6120362417    -4.0178008587     1.8049136220
O     -9.6676581894    -4.9363143475    -0.0759477371
C     -8.5509606194    -5.3885046361     0.7312102866
C     -7.6161302334    -6.1344989736    -0.2154527993
O     -6.4899943018    -6.5356783697     0.5697084274
C     -5.6200898858    -7.4616923605    -0.0979736109
C     -4.7395044179    -6.8468621796    -1.1816618085
O     -3.8149798310    -5.9346286955    -0.5802844072
C     -2.9456368608    -5.3402995836    -1.5465320875
C     -1.9837956338    -4.3949425244    -0.8464381503
O     -1.0631941638    -5.0940675825     0.0363690189
C      0.1176254657    -5.5088339094    -0.5219716029
O      0.4555064520    -5.3008148589    -1.6831793402
N      0.8386500157    -6.1760708704     0.4361467638
C      2.1070882010    -6.7769868187     0.3133928132
C      2.8411368717    -6.8562637414    -0.8860165485
C      4.0868053740    -7.4889145191    -0.9233920232
C      4.6392381512    -8.0788915937     0.2250688578
C      3.9057935967    -8.0107919829     1.4212063968
C      2.6649711054    -7.3746335490     1.4608473930
C      6.0065912826    -8.7544777646     0.1806004913
C      7.1631052444    -7.7628567360     0.2684927851
C      7.5438544614    -7.2041551811     1.5014502513
C      8.5929600931    -6.2896804966     1.5726030753
C      9.3014268120    -5.8854492323     0.4213640034
C      8.9187621338    -6.4496128972    -0.8094490717
C      7.8661956214    -7.3686673745    -0.8797504806
N     10.3500323414    -4.9598989072     0.5860752847
C     11.2040356324    -4.4593964525    -0.3676882180
O     11.2031944464    -4.7310485603    -1.5648172982
O     12.0772744073    -3.6025376043     0.2419666774
C     13.0445877757    -2.9320316687    -0.6253690267
C     12.4927973281    -1.6273661399    -1.1996090284
C     12.1500204823    -0.5696355700    -0.1372586732
C     11.5933002842     0.7217393462    -0.7567927670
C     11.2343575887     1.7726698756     0.3212430496
C     10.7590365247     3.0673868881    -0.3041945173
O     11.4872662745     3.8464246014    -0.9250919064
O      9.4395692355     3.2584560665    -0.1315176896
C      8.7979392200     4.4488848860    -0.7160592311
C      8.4050178865     5.4412316670     0.3771655056
C      9.5919213579     6.1998950014     0.9931549116
C      9.1655698782     7.2249252741     2.0571421602
C     10.3541191997     8.0223442384     2.6498763344
C     10.9867388134     8.9205104140     1.5998601078
O     10.4348204205     9.8940958745     1.1019786162
O     12.2219424530     8.4925459324     1.2409042285
C     12.8794380359     9.1881202900     0.1274407012
C     13.8389920712     8.2081842137    -0.5421389840
C     13.1189986230     6.9610602036    -1.0851237544
C     13.9849979355     6.0158201362    -1.9379332163
C     15.2463547677     5.4556280517    -1.2538588661
C     15.0865485632     4.6549363464     0.0352700831
O     15.9602955580     4.6222433302     0.8922632723
O     13.9783343966     3.9024530795     0.2189498185
H    -14.8369412577    12.1100345556    -2.6437640496
H    -16.7196638551    11.1568708109    -0.7373158905
H    -16.1080012089    10.2244918123    -2.1309660275
H    -14.3748734828    11.3335029208     0.1671106678
H    -13.7769026965    10.3287782390    -1.1656911960
H    -15.8610689361     9.4106954217     0.9358202203
H    -14.1226265896     9.0692767289     1.0225007409
H    -14.2617124840     7.8145701487    -1.1723710475
H    -16.0337707833     8.0577719212    -1.1817885308
H    -15.5781068902     5.0702265978     1.7409801273
H    -15.8320540069     3.0468349227     2.7987866173
H    -16.2441058304     0.6159876638     2.7148127263
H    -16.3960914635     0.8054595346    -1.6017287154
H    -15.9824816932     3.2432049637    -1.5058726207
H    -17.2461034832    -1.2246073055    -0.3408851378
H    -17.0573603008    -1.3187664132     1.4171745231
H    -14.7696326830    -1.8195660995     2.4191344112
H    -12.6375294930    -3.0367410287     2.1127384763
H    -13.3078557775    -3.1370308061    -2.1454797156
H    -15.4378779512    -1.9259148740    -1.8509710603
H    -11.4499587929    -4.1569602291    -1.2597203495
H     -8.0400062503    -4.5231386662     1.1847233715
H     -8.9102356060    -6.0516375393     1.5345534369
H     -7.3220567333    -5.4678604036    -1.0504346575
H     -8.1282337298    -7.0206838693    -0.6422177654
H     -6.2114018810    -8.2828283766    -0.5535603484
H     -4.9795352899    -7.8886807261     0.6915215440
H     -5.3527248051    -6.3249465445    -1.9465260460
H     -4.1966782937    -7.6704846927    -1.6925406158
H     -3.5280582892    -4.7505271210    -2.2863240233
H     -2.3828693634    -6.1199704499    -2.1009401268
H     -1.4143881289    -3.8272840748    -1.5986401842
H     -2.5314554437    -3.7026303950    -0.1899209291
H      0.3912352984    -6.2400136719     1.3513935927
H      2.4286968020    -6.4078250956    -1.7912368400
H      4.6275828132    -7.5362937832    -1.8760992986
H      4.3026891574    -8.4710808749     2.3328065557
H      2.1125209043    -7.3368132482     2.4071980167
H      6.0979419170    -9.3359439181    -0.7537185031
H      6.0807733495    -9.4793264021     1.0105135430
H      7.0262375641    -7.4961771927     2.4225569630
H      8.8743568794    -5.8727171015     2.5470032034
H      9.4537625521    -6.1613205366    -1.7156470691
H      7.5973758017    -7.7948007698    -1.8530141471
H     10.5116639020    -4.6203017834     1.5348753348
H     13.3409481544    -3.6243263657    -1.4288670162
H     13.9071730511    -2.7466067122     0.0345256824
H     11.6044279746    -1.8523799467    -1.8181856581
H     13.2616893769    -1.2306118900    -1.8902945777
H     13.0567863136    -0.3322070581     0.4523522768
H     11.4129023234    -0.9865906050     0.5739567142
H     10.6926087011     0.4866311439    -1.3542984854
H     12.3351943843     1.1563171364    -1.4519255294
H     12.1331607102     2.0062703835     0.9184518019
H     10.4569116207     1.3833963303     0.9975073058
H      7.9089980283     4.0524227963    -1.2302333999
H      9.4841126345     4.8965829924    -1.4516970942
H      7.8322227652     4.9086583578     1.1596166960
H      7.7042891142     6.1615004560    -0.0869703142
H     10.1430151307     6.7099850093     0.1799796717
H     10.3047814993     5.4856569357     1.4458039817
H      8.6493731941     6.7096977188     2.8871340299
H      8.4386508970     7.9389832557     1.6269576192
H      9.9888652463     8.6743251286     3.4614689395
H     11.1126860449     7.3399383164     3.0660082289
H     12.1014622444     9.5367625520    -0.5715993333
H     13.4038119580    10.0679602147     0.5366849771
H     14.6340668661     7.9268795956     0.1722284716
H     14.3350140914     8.7565023263    -1.3656658926
H     12.6787587094     6.4061048626    -0.2385560250
H     12.2617126909     7.2864020663    -1.7050340624
H     14.3199930315     6.5443679164    -2.8496251651
H     13.3511132102     5.1839731464    -2.2955889817
H     15.9695727010     6.2526177255    -1.0213126100
H     15.7629263290     4.7728554934    -1.9563922555
H     13.2584708051     4.0044148424    -0.4635210048
