155
polyurethane PU_conf_120 from PU_conf_120.cosmo (coord_rad bohr -> angstrom)
O     15.8787966322    12.2982010042     0.3435616292
C     14.9781574168    12.6695153055    -0.7268622550
C     13.9267094035    11.6019167922    -1.0603180678
C     14.4870398224    10.2678829865    -1.6071591524
C     14.8124071652     9.2733693426    -0.4960833451
O     15.3096263601     8.0595566497    -1.1374021860
C     15.6522888217     7.0418232812    -0.2935218852
O     15.5646925224     7.0914406037     0.9299694721
N     16.1004496340     5.9807092631    -1.0438413010
C     16.5566472880     4.7258399515    -0.5954258215
C     16.9177796987     3.7702955798    -1.5674340387
C     17.3939618551     2.5097526726    -1.2092525548
C     17.5357885980     2.1541674747     0.1430875609
C     17.1854206388     3.1039979549     1.1150861945
C     16.7104478881     4.3698951019     0.7579739133
C     18.0293612571     0.7663681034     0.5417894901
C     16.8963857455    -0.2495172033     0.6546696436
C     16.5013415998    -1.0179138833    -0.4515018373
C     15.4490820546    -1.9343529360    -0.3624434117
C     14.7415560142    -2.1027163939     0.8427620146
C     15.1479121490    -1.3346281960     1.9528785985
C     16.2002301623    -0.4241884081     1.8629936268
N     13.6854018578    -3.0172598135     1.0257582029
C     13.0739847100    -3.8083533014     0.0844960969
O     13.3228390296    -3.8521912783    -1.1163837862
O     12.1203754316    -4.5666454741     0.7050276081
C     11.3537563493    -5.4438515529    -0.1638486062
C     10.3402635737    -6.1873776226     0.6982703814
O      9.3503994599    -5.3568691029     1.3137957498
C      8.3383840290    -4.8933258215     0.4112802912
C      7.2405726145    -4.2595646109     1.2621653007
O      6.2535838081    -3.7363501351     0.3688164863
C      5.1522375828    -3.1526187618     1.0701647117
C      4.1348428679    -2.6315549843     0.0693326049
O      3.5106949884    -3.6990737232    -0.6960097542
C      2.3614277737    -4.2312661005    -0.1719736687
O      1.8251168251    -3.8567281128     0.8661872316
N      1.9276247641    -5.2304402619    -1.0064715595
C      0.7856631894    -6.0447631041    -0.8727401395
C     -0.0774325589    -6.0333412596     0.2409368157
C     -1.1824469173    -6.8857693550     0.3002310596
C     -1.4604314429    -7.7917369499    -0.7368790099
C     -0.5974157793    -7.8136045339    -1.8445267679
C      0.5037329968    -6.9584465880    -1.9066402912
C     -2.6719675504    -8.7160139543    -0.6679443118
C     -3.9998915220    -7.9846588437    -0.8369696617
C     -4.3665568717    -7.4285491373    -2.0758269172
C     -5.5800184422    -6.7603187904    -2.2220532235
C     -6.4767799189    -6.6093107749    -1.1427440839
C     -6.1054872963    -7.1670359357     0.0937825302
C     -4.8878835851    -7.8416031230     0.2392892501
N     -7.6781352573    -5.9134376841    -1.3790336549
C     -8.7306914930    -5.7146803813    -0.5178653604
O     -8.8131593649    -6.1142033793     0.6398166815
O     -9.6934294145    -4.9959064067    -1.1700792634
C    -10.8888059370    -4.6615250357    -0.4009719981
C    -10.7257638080    -3.3393997048     0.3496764219
C    -12.0285985089    -2.9576178887     1.0782377473
C    -11.9143496684    -1.6917647881     1.9511383147
C    -11.6965214850    -0.4068668900     1.1385642288
C    -11.5954096548     0.8411897574     1.9992503210
O    -11.2792561304     0.8664482408     3.1816879383
O    -11.8808785439     1.9547412953     1.2816174421
C    -11.7688978319     3.2352979689     1.9891771823
C    -12.1500225419     4.3468648239     1.0195987503
C    -13.6219534783     4.3171172787     0.5738667276
C    -13.9736195434     5.4805654788    -0.3686262319
C    -15.4113397047     5.4200787608    -0.9075664105
C    -16.4756117144     5.6961421359     0.1432905963
O    -16.3262120977     6.4036541020     1.1305230297
O    -17.6407985559     5.0735655033    -0.1691186823
C    -18.7888562381     5.3063378041     0.7155630042
C    -19.6011883025     6.5256380311     0.2764919491
C    -20.2033868752     6.4311290084    -1.1412981530
C    -21.2903452874     5.3539907442    -1.3363405198
C    -22.5772772975     5.6412710303    -0.5525867808
C    -23.6752429472     4.6143590014    -0.7883389276
O    -23.5875671009     3.6276828502    -1.4967204528
O    -24.8514082356     4.8464506906    -0.1324656063
H     16.6169300453    11.7989307031    -0.0465442527
H     14.4685009072    13.5877311049    -0.3865933036
H     15.5571823010    12.9240971343    -1.6357946880
H     13.2554415986    12.0474059717    -1.8178730864
H     13.3018251710    11.4149799195    -0.1665864077
H     15.3928314733    10.4540831703    -2.2140933505
H     13.7466271324     9.8021498680    -2.2800259364
H     13.9119059850     9.0246837975     0.0912770165
H     15.5798048457     9.6532153530     0.1975724153
H     16.0894343730     6.1264865058    -2.0538713494
H     16.8191250907     4.0232302451    -2.6298502823
H     17.6708064030     1.7986104187    -1.9958810268
H     17.3000305169     2.8618309615     2.1780348555
H     16.4469910934     5.0937590101     1.5307388710
H     18.5610726785     0.8309530270     1.5073447798
H     18.7656538849     0.4119146384    -0.2008567466
H     17.0362245811    -0.9164787856    -1.4028900723
H     15.1599859646    -2.5216276447    -1.2354195669
H     14.6221822273    -1.4534883117     2.9078367401
H     16.4902151536     0.1486715014     2.7511624633
H     13.3200406972    -3.1068497252     1.9744270633
H     10.8715561585    -4.8454588048    -0.9541216638
H     12.0287300061    -6.1735023876    -0.6433660756
H     10.8624518882    -6.6985776721     1.5240259164
H      9.8595267191    -6.9569297295     0.0591752938
H      7.9266373978    -5.7394870416    -0.1750999401
H      8.7338457740    -4.1395742040    -0.2985409585
H      7.6710003363    -3.4510349077     1.8894514727
H      6.7964436293    -5.0199955381     1.9364661685
H      5.4941598961    -2.2946875464     1.6881694116
H      4.6836288203    -3.8952252521     1.7483253345
H      3.3607211497    -2.0571078454     0.6011354895
H      4.6237016779    -1.9949134892    -0.6832297726
H      2.5029695795    -5.3853829459    -1.8352342579
H      0.1210107082    -5.3383181462     1.0583733936
H     -1.8315600968    -6.8480828257     1.1833601616
H     -0.7842541795    -8.5124484919    -2.6673744819
H      1.1606679975    -6.9951086925    -2.7838124652
H     -2.6747930756    -9.2466170744     0.3008613535
H     -2.5779822111    -9.4923630203    -1.4482636510
H     -3.7019898358    -7.5248489099    -2.9424672977
H     -5.8466357674    -6.3412817748    -3.1996352212
H     -6.7816106470    -7.0716286076     0.9448075542
H     -4.6284896506    -8.2686333252     1.2146842876
H     -7.7968594112    -5.5160327256    -2.3115746434
H    -11.1111670746    -5.4887514197     0.2923531643
H    -11.6862759672    -4.5959652714    -1.1578476813
H    -10.4346110395    -2.5562385317    -0.3730076986
H     -9.9028807817    -3.4337349162     1.0813426773
H    -12.3358663202    -3.7986921676     1.7278201600
H    -12.8418137530    -2.8256687599     0.3383484007
H    -11.0906252341    -1.8092636439     2.6772053421
H    -12.8384675556    -1.5843425305     2.5474862399
H    -12.4986820829    -0.2592476913     0.3950918780
H    -10.7531241336    -0.4593778079     0.5613188152
H    -10.7320996312     3.3444296846     2.3488233037
H    -12.4386205615     3.2086719027     2.8661998487
H    -11.4826193330     4.3044703441     0.1383741222
H    -11.9335879337     5.3046102027     1.5302109872
H    -14.2708197834     4.3526257008     1.4705780731
H    -13.8348352911     3.3577608668     0.0671073032
H    -13.2822947009     5.4762106224    -1.2315199170
H    -13.8241365217     6.4436066430     0.1528045744
H    -15.5552255311     6.1895484350    -1.6907395996
H    -15.6261415864     4.4500541285    -1.3866864100
H    -19.3705873244     4.3743292408     0.6445524081
H    -18.4221471025     5.4284763355     1.7466682677
H    -18.9574237161     7.4207759333     0.3432869203
H    -20.3963254529     6.6694743442     1.0320193646
H    -20.6216329766     7.4190932759    -1.4107754043
H    -19.3882119619     6.2412489685    -1.8627338757
H    -20.9095099085     4.3560731655    -1.0556155189
H    -21.5385455736     5.2867185742    -2.4097076281
H    -22.9811451769     6.6375822984    -0.8185750159
H    -22.3893844339     5.6765672287     0.5374460942
H    -24.7907268234     5.6653024612     0.4006597788
