155
polyurethane PU_conf_6 from PU_conf_6.cosmo (coord_rad bohr -> angstrom)
O     12.2031764056    11.6824455912    -0.8969267696
C     13.3391090376    11.9692283249    -0.0542460061
C     14.6786965207    11.9020442795    -0.8026425915
C     15.0140510230    10.5240671574    -1.4089909839
C     15.4408013776     9.5138847726    -0.3493237562
O     15.7426684812     8.2642284910    -1.0406068546
C     16.1353711164     7.2275312404    -0.2425915065
O     16.2374759853     7.2889674885     0.9792371259
N     16.3890542882     6.1336680944    -1.0356857006
C     16.8231398792     4.8528704847    -0.6420022748
C     17.0547615574     3.8959437249    -1.6521484282
C     17.4904594589     2.6067357718    -1.3510368510
C     17.7228745691     2.2221871993    -0.0187683233
C     17.5011789832     3.1715006590     0.9902627566
C     17.0618018100     4.4651757568     0.6895829353
C     18.1804946937     0.8064636298     0.3200385034
C     17.0304940697    -0.1959632968     0.3510706498
C     16.7537823196    -1.0137022061    -0.7549737472
C     15.6905801106    -1.9226954997    -0.7409648580
C     14.8552369620    -2.0347212680     0.3857688021
C     15.1422030343    -1.2147327808     1.4968277503
C     16.2030330263    -0.3108115922     1.4819257312
N     13.7763861303    -2.9344568829     0.4933851972
C     13.2836537521    -3.7882207139    -0.4627065067
O     13.6884608953    -3.9196200951    -1.6137548147
O     12.2447537029    -4.4945019717     0.0767712600
C     11.5955797850    -5.4344659487    -0.8232910549
C     10.4808220319    -6.1247309938    -0.0655582961
O      9.4265351244    -5.1933317849     0.1919745275
C      8.3434615492    -5.7936458357     0.9078716638
C      7.3030484755    -4.7047672779     1.1581289129
O      6.1917199261    -5.3285370994     1.8130731991
C      5.2459319588    -4.4024349863     2.3580197594
C      4.3639039300    -3.7059763395     1.3205231940
O      3.5641344380    -4.6488279865     0.5552177222
C      2.3549665834    -4.9984374724     1.0970143750
O      1.9055089690    -4.5556409118     2.1495701550
N      1.7505481631    -5.9046940501     0.2624613756
C      0.4959905941    -6.5279911788     0.4145184583
C     -0.3221366809    -6.4066668329     1.5545392838
C     -1.5470361734    -7.0748693804     1.6316445390
C     -1.9937514737    -7.9008412635     0.5873562724
C     -1.1749460007    -8.0344837349    -0.5461064062
C      0.0456160929    -7.3634986343    -0.6266239907
C     -3.3407073188    -8.6131279899     0.6709078961
C     -4.5147873392    -7.6998465738     0.3310877600
C     -4.8570112124    -7.4288810523    -1.0054903448
C     -5.9181078806    -6.5772340832    -1.3076978974
C     -6.6762040680    -5.9522365409    -0.2954303725
C     -6.3342113918    -6.2314418454     1.0407436708
C     -5.2703074152    -7.0880478526     1.3426617516
N     -7.7338077220    -5.1103564906    -0.6904233667
C     -8.6172541294    -4.4211493483     0.1066819754
O     -8.6423650683    -4.4078241510     1.3341991992
O     -9.4855225777    -3.7369904451    -0.6937259634
C    -10.5057308689    -2.9544395593     0.0005827817
C    -11.3189735855    -2.2053751534    -1.0482847013
C    -10.5193382770    -1.1294821358    -1.8051074320
C    -11.3194336473    -0.4165897347    -2.9124579087
C    -12.4563101611     0.4636928923    -2.3713791289
C    -13.2517097328     1.1650724379    -3.4589550844
O    -13.3357017913     0.7972491493    -4.6230749634
O    -13.8838700175     2.2607785494    -2.9660915219
C    -14.7513887405     3.0086770161    -3.8847408149
C    -16.1861047617     2.4826101897    -3.8607108478
C    -16.8861193973     2.6275029160    -2.4987709949
C    -18.3276228830     2.0917491668    -2.5193040257
C    -19.0199985912     2.1424310607    -1.1480143753
C    -19.3589840437     3.5510370342    -0.6852176495
O    -19.6344044099     4.4908807468    -1.4195466606
O    -19.3594309172     3.6392603702     0.6670552703
C    -19.7448254612     4.9334998548     1.2393206413
C    -19.6563314752     4.8189616813     2.7570731676
C    -18.2348056330     4.5828475930     3.3080701202
C    -17.2470346715     5.7522308554     3.1240686254
C    -17.6242839997     7.0004794723     3.9631785977
C    -16.6316547815     8.1295876259     3.7378586964
O    -16.6677404886     8.8973229189     2.7911787391
O    -15.6119799816     8.2499123772     4.6385434459
H     12.1695097993    12.3732923364    -1.5837408131
H     13.2313528608    12.9674924889     0.4151846173
H     13.2958558049    11.2200131049     0.7548670905
H     15.4785148032    12.2205414966    -0.1065326657
H     14.6625528635    12.6555857240    -1.6129393767
H     15.8317101410    10.6336216524    -2.1427974460
H     14.1369195334    10.1366371971    -1.9568921959
H     14.6479908083     9.3224550816     0.3936865228
H     16.3433656572     9.8512264388     0.1886294403
H     16.2489935979     6.2789371081    -2.0361076312
H     16.8872808822     4.1730473438    -2.6997900870
H     17.6652802804     1.8969147411    -2.1678228471
H     17.6852540739     2.9036838089     2.0369692141
H     16.8992340158     5.1878702529     1.4906731432
H     18.6877169138     0.8135728478     1.3008847322
H     18.9305112112     0.4760807486    -0.4200959395
H     17.3901532684    -0.9552602726    -1.6453593844
H     15.4953910163    -2.5493598463    -1.6126158039
H     14.5134278745    -1.2881370011     2.3922220969
H     16.3954333650     0.3026795948     2.3697102416
H     13.2940903609    -2.9614609746     1.3923923120
H     11.2005700188    -4.8927103971    -1.6986585946
H     12.3292042986    -6.1820477947    -1.1674074704
H     10.8678682643    -6.5488916084     0.8843368517
H     10.1134592734    -6.9645239625    -0.6924933511
H      8.6941174689    -6.2127098377     1.8730490358
H      7.8908458145    -6.6177435536     0.3175080193
H      7.0085009524    -4.2508281525     0.1908074584
H      7.7315838441    -3.9080761104     1.7991536814
H      5.7661607995    -3.6124302158     2.9402441569
H      4.6173205159    -4.9843716598     3.0510593535
H      3.7036295153    -2.9893159378     1.8352133726
H      4.9603979618    -3.1740723436     0.5649720094
H      2.2764674807    -6.1390529049    -0.5803534581
H      0.0063968546    -5.7713210933     2.3785201645
H     -2.1555068151    -6.9607251202     2.5366432878
H     -1.4885604780    -8.6801809602    -1.3738586458
H      0.6658764418    -7.4854650234    -1.5225262062
H     -3.4789080706    -9.0182392196     1.6888854889
H     -3.3374087700    -9.4789102326    -0.0146313709
H     -4.2985692418    -7.8985935300    -1.8235004472
H     -6.1699114865    -6.3872526504    -2.3579739027
H     -6.9095816257    -5.7689844482     1.8441816454
H     -5.0336220859    -7.2906578563     2.3934242054
H     -7.8724772211    -4.9962003788    -1.6950821074
H    -10.0066069166    -2.2621759186     0.7006701842
H    -11.1389941514    -3.6427066569     0.5854567507
H    -12.1729809250    -1.7507696680    -0.5131968986
H    -11.7482688751    -2.9333380910    -1.7623286287
H     -9.6312402136    -1.6010775573    -2.2624666636
H    -10.1360369577    -0.3825592233    -1.0822948794
H    -11.7360235439    -1.1614062933    -3.6135371970
H    -10.6322674311     0.2134969782    -3.5056931766
H    -12.0766997287     1.2219388046    -1.6649125004
H    -13.1892112702    -0.1404077724    -1.8018408198
H    -14.3228701299     2.9535556906    -4.8975275076
H    -14.6981356947     4.0455451622    -3.5163779641
H    -16.1893210699     1.4248275616    -4.1824116731
H    -16.7472684758     3.0445560869    -4.6322926483
H    -16.8867655163     3.6953800966    -2.2047206131
H    -16.3073952387     2.0882041116    -1.7260045830
H    -18.3241130577     1.0418853278    -2.8660106814
H    -18.9305707183     2.6644592915    -3.2474562221
H    -19.9842991895     1.5999026716    -1.1910054323
H    -18.4188951037     1.6441774057    -0.3691988250
H    -19.0736771724     5.7087739315     0.8326105831
H    -20.7716446110     5.1676947262     0.9118919120
H    -20.3178523996     3.9976038129     3.0876447905
H    -20.0919891462     5.7446785309     3.1761034980
H    -18.3079330107     4.3398854254     4.3843746252
H    -17.8083927232     3.6862161542     2.8232279852
H    -17.1776075039     6.0427945483     2.0600683294
H    -16.2380529727     5.4110696809     3.4172721089
H    -17.6797204953     6.7301964643     5.0324965659
H    -18.6126831084     7.3808732459     3.6587379951
H    -15.7070859463     7.5862798504     5.3510232093
