155
polyurethane PU_conf_850 from PU_conf_850.cosmo (coord_rad bohr -> angstrom)
O    -20.8643838565    -7.1037447629    -0.3660238652
C    -19.5121727573    -6.9483247403    -0.8420982333
C    -18.5896257727    -6.3037049485     0.2010328668
C    -17.1620001079    -6.1118099376    -0.3429960191
C    -16.2538258213    -5.4761648770     0.7033670619
O    -14.9298431787    -5.3409250955     0.1049248702
C    -13.9699925166    -4.7936081037     0.9082649559
O    -14.1567909802    -4.4238232467     2.0637955306
N    -12.7901782224    -4.7352771308     0.2054907453
C    -11.5394962359    -4.2530958651     0.6380634777
C    -11.2775045965    -3.7589049165     1.9293774223
C     -9.9988459421    -3.3110475161     2.2775504281
C     -8.9370618078    -3.3465946267     1.3610066662
C     -9.1929285624    -3.8459040885     0.0717982549
C    -10.4663992333    -4.2928743965    -0.2764927817
C     -7.5511066932    -2.8366012337     1.7443186517
C     -7.2987122901    -1.4039513219     1.2836923992
C     -7.7770916904    -0.3113985942     2.0253191693
C     -7.5617847377     1.0032421350     1.6030461118
C     -6.8753283130     1.2731639293     0.4023732068
C     -6.3917221605     0.1727018963    -0.3332767590
C     -6.5992476647    -1.1393440240     0.0944723733
N     -6.5871225493     2.5672484326    -0.0759398685
C     -7.1557188394     3.7436797408     0.3335123256
O     -8.0434699739     3.8800735183     1.1719312348
O     -6.5612745993     4.7802719601    -0.3442549797
C     -7.1664702573     6.0915588656    -0.1759681548
C     -8.1812059961     6.3741948653    -1.2723568949
O     -7.4954980248     6.5219971012    -2.5199724832
C     -8.3441369284     6.2917501203    -3.6469135356
C     -7.5286622111     6.3898983702    -4.9373748913
O     -6.3355852584     5.5975368047    -4.9829199265
C     -6.5409677708     4.2035974297    -4.7447605674
C     -5.2378290812     3.4627474027    -5.0055600717
O     -4.1408805881     3.9335348276    -4.1706017873
C     -4.0378220027     3.4086412056    -2.9186410188
O     -4.7829698621     2.5395917288    -2.4589608697
N     -2.9820339189     3.9957017138    -2.2771465758
C     -2.4810378309     3.7039067818    -0.9879696147
C     -2.6370840400     2.4606894350    -0.3534476705
C     -2.0844865648     2.2293078213     0.9105842056
C     -1.3422935242     3.2205786056     1.5709025338
C     -1.1693822412     4.4602285029     0.9300053111
C     -1.7337511439     4.6955157826    -0.3227190602
C     -0.7312042467     2.9568965564     2.9437980155
C      0.7870678589     2.8123571932     2.9082442766
C      1.6220384261     3.8435904793     3.3684798968
C      3.0102177113     3.7091109056     3.3248031176
C      3.6224833102     2.5465104516     2.8169465997
C      2.7805455951     1.5114466924     2.3636694506
C      1.3907575211     1.6490963623     2.4027181805
N      5.0292780401     2.4823859748     2.8288386561
C      5.8411714384     1.4819417626     2.3482468084
O      5.4819887246     0.4481094369     1.7917760566
O      7.1406360801     1.8203466516     2.5911337046
C      8.1424539537     0.8591450862     2.1358341924
C      9.5175922984     1.4137880991     2.4895051576
C      9.8916625805     2.6883566122     1.7116124977
C     11.2297602442     3.3294916524     2.1291438011
C     12.4779572686     2.4732684520     1.8343819863
C     12.8281611794     1.4605869439     2.9138375769
O     12.6448583445     1.6159859130     4.1136162597
O     13.4358834661     0.3707827563     2.3776111648
C     13.9241106159    -0.6587344140     3.3042008788
C     12.8899439157    -1.7685564802     3.5004966534
C     12.5284644106    -2.5539657535     2.2236602038
C     13.6674388779    -3.4417940927     1.6935701593
C     13.2508041148    -4.3159778245     0.4876553348
C     12.8626775727    -3.5208006477    -0.7491035637
O     11.7758292752    -3.5792782136    -1.3101547933
O     13.8824638364    -2.7285078177    -1.1656401365
C     13.6572038504    -1.9072763061    -2.3600880155
C     14.0677993799    -2.6417597772    -3.6355933661
C     15.5641807799    -2.9890941624    -3.7020653670
C     15.9440673694    -3.7090979059    -5.0052225389
C     17.4568037075    -4.0059851023    -5.1296115786
C     18.0088594143    -4.9293796086    -4.0524957760
O     18.9416874042    -4.6648270962    -3.3141085420
O     17.4040599901    -6.1479186549    -3.9264469194
H    -20.8396269586    -7.7279738153     0.3816855390
H    -19.0969350708    -7.9255206115    -1.1626277377
H    -19.5858906378    -6.3063796633    -1.7365211038
H    -18.5648520398    -6.9437391204     1.1037797699
H    -19.0193394372    -5.3317876209     0.5052944013
H    -17.1837796028    -5.4703416980    -1.2425309246
H    -16.7381555963    -7.0861593397    -0.6464513080
H    -16.1755005817    -6.1030763302     1.6081468031
H    -16.6151350574    -4.4773607349     1.0028147679
H    -12.8352136493    -5.0866040050    -0.7515796340
H    -12.0873016132    -3.7246259093     2.6598693721
H     -9.8256204196    -2.9383820388     3.2935840160
H     -8.3856902900    -3.9011655784    -0.6676791725
H    -10.6394385668    -4.6836760959    -1.2864387441
H     -6.7824263968    -3.4994685446     1.3092421417
H     -7.4332531906    -2.8953204123     2.8408243535
H     -8.3111119503    -0.4840710152     2.9674597213
H     -7.9427817200     1.8356604815     2.1968687966
H     -5.8439400253     0.3567773189    -1.2641948684
H     -6.2024072011    -1.9686504392    -0.5018670490
H     -5.9203659064     2.6312685099    -0.8605068395
H     -7.6534078099     6.1523294824     0.8094952207
H     -6.3308122644     6.8055422966    -0.2255055682
H     -8.7373104402     7.3010345657    -1.0187378274
H     -8.9130723770     5.5423724496    -1.3255710105
H     -9.1528142653     7.0510251028    -3.7083793302
H     -8.8298398530     5.2988887221    -3.5521705888
H     -7.1845326762     7.4267755344    -5.0866131362
H     -8.2061426272     6.1222356023    -5.7762242797
H     -7.3051109772     3.7876305135    -5.4360469171
H     -6.8779624494     4.0242485786    -3.7063328388
H     -5.3901231592     2.3843716848    -4.8440743218
H     -4.8853128040     3.6425660739    -6.0317460704
H     -2.5307617163     4.7583511237    -2.7828201273
H     -3.2036412360     1.6703452790    -0.8492829588
H     -2.2281363430     1.2535321579     1.3876146415
H     -0.5998130264     5.2591814115     1.4189028324
H     -1.6026831693     5.6742436330    -0.7985551455
H     -1.1783074855     2.0401948619     3.3671544684
H     -1.0001305024     3.7808391538     3.6284602486
H      1.1824432164     4.7611825163     3.7750656268
H      3.6386277676     4.5295246708     3.6912022217
H      3.2292684478     0.5980692661     1.9700128649
H      0.7680470070     0.8205734453     2.0441693828
H      5.5167595273     3.2747126050     3.2487530149
H      8.0268259688     0.7158302933     1.0470289420
H      7.9565584897    -0.1066592673     2.6345509940
H     10.2417088000     0.6047724488     2.2785162219
H      9.5645742033     1.6001910651     3.5781203520
H      9.0903435590     3.4369103777     1.8466997051
H      9.9221276812     2.4562961025     0.6293466533
H     11.2116741807     3.5747235901     3.2060833386
H     11.3377824152     4.2884647176     1.5919867451
H     13.3680007151     3.1281404147     1.7618944284
H     12.3998601158     1.9562794413     0.8632732965
H     14.1754832141    -0.1805595004     4.2637248201
H     14.8451325333    -1.0312225665     2.8298049119
H     11.9779494990    -1.3265971975     3.9398077633
H     13.2983608953    -2.4602573004     4.2625163318
H     12.2033832543    -1.8437164282     1.4397885097
H     11.6503713222    -3.1907404161     2.4413615833
H     14.0093845607    -4.1172854381     2.4993589956
H     14.5399235468    -2.8309655342     1.4027811700
H     14.0917902492    -4.9764398840     0.2082503392
H     12.3896382149    -4.9521195979     0.7442908820
H     12.5962695751    -1.6150495702    -2.3938363643
H     14.2809398289    -1.0142879376    -2.1938287102
H     13.7983032782    -1.9849452833    -4.4850750774
H     13.4547692057    -3.5559328297    -3.7408519655
H     16.1614811430    -2.0609684129    -3.6119239813
H     15.8320595411    -3.6180079863    -2.8319809685
H     15.6562847277    -3.0888385423    -5.8737639838
H     15.3546771975    -4.6420437768    -5.1018027114
H     18.0406220914    -3.0744890631    -5.0785971719
H     17.6611093906    -4.4762391445    -6.1098383248
H     16.6789130111    -6.2389095053    -4.5783866609
