44
pvc config_76710 from config_76710.mcos (coord_rad bohr -> angstrom)
C     -6.8166975132    -0.2762931555    -0.0857024869
C     -5.4069979415    -0.8415672488    -0.3658609132
C     -4.2481042223     0.1204033115    -0.0564558711
H     -5.3192403125    -1.1814634612    -1.4144186895
H     -5.2569049994    -1.7317255613     0.2770447924
C     -2.8776612510    -0.5549269250    -0.2407387728
H     -4.3396858843     0.5537267938     0.9513705761
Cl    -4.3479497459     1.6142003848    -1.2217045067
C     -1.6332350998     0.2788037850     0.1118001333
H     -2.7688130667    -0.8784899241    -1.2954300839
H     -2.8829761593    -1.4767387116     0.3734422053
C     -0.3279251234    -0.4865954083    -0.1635088933
Cl    -1.6977530916     0.7234696795     1.9506037068
H     -1.6438877447     1.2458906687    -0.4156810746
C      0.9988543337     0.2300773264     0.1387517823
H     -0.3437909042    -0.7833364678    -1.2312867213
H     -0.3302848534    -1.4268444355     0.4233357373
C      2.2195125544    -0.6541518584    -0.1719426122
H      1.0267276295     0.5870882655     1.1805373929
Cl     1.0956922317     1.7970447257    -0.9186558462
C      3.6062601061    -0.0701208608     0.1509138139
H      2.2176692807    -0.9122307040    -1.2492190574
H      2.0869013411    -1.6053178407     0.3818419838
C      4.7359976829    -1.0276545222    -0.2608680453
Cl     3.7120668704     0.2509646151     2.0177261647
H      3.7290522616     0.9246940543    -0.3032194488
C      6.1696155667    -0.4842943753    -0.0740868387
H      4.5832584194    -1.2515223195    -1.3359067262
H      4.6080753627    -1.9806331600     0.2853502279
C      6.5403840412     0.6992761323    -0.9716589863
Cl     7.3289908607    -1.9568623475    -0.4507874636
H      6.3810597756    -0.2561611694     0.9827458790
C     -7.1193919895    -0.0088925080     1.3842863015
Cl    -8.0400373513    -1.5994210777    -0.7211395857
H     -7.0307174485     0.6025795451    -0.7122316212
H     -8.1704808962     0.2882252998     1.5482671522
H     -6.4867742856     0.8272015352     1.7328553820
H     -6.8953041948    -0.8907357145     2.0087125915
C      7.9624126958     1.2578873122    -0.7867950659
H      5.8145056813     1.5024997030    -0.7332617995
H      6.3576936342     0.4278957013    -2.0288652122
H      8.0990080409     2.1586382348    -1.4070398669
H      8.7291310224     0.5239227986    -1.0846124605
H      8.1504691017     1.5413991822     0.2641455919
