44
pvc config_59670 from config_59670.mcos (coord_rad bohr -> angstrom)
C     -6.7948113300     0.3936819077     0.8925934365
C     -5.3888148518    -0.1403315389     1.2105146208
C     -4.2706396346     0.0829699931     0.1776632231
H     -5.4336865804    -1.1967767751     1.5295940415
H     -5.0738777931     0.4420378161     2.1036711513
C     -2.8729123135    -0.1466350596     0.7844868232
H     -4.3432749172     1.0986273011    -0.2483755199
Cl    -4.4506275837    -1.0793044690    -1.3107027545
C     -1.6556957216     0.1435008860    -0.1095557188
H     -2.7839515212    -1.2009403199     1.1166104773
H     -2.8076402087     0.4754811343     1.6978858715
C     -0.3277343547    -0.1482341400     0.6079210470
Cl    -1.6797043893     1.9678514725    -0.6168568371
H     -1.7197632762    -0.4174859008    -1.0563491095
C      0.9728975318     0.0807822542    -0.1789621539
H     -0.3652494204    -1.2029517241     0.9468275035
H     -0.2678131935     0.4724627484     1.5242870264
C      2.2220562147    -0.2274915235     0.6635221907
H      1.0117380888     1.1072903280    -0.5790311248
Cl     0.9611932935    -1.0409192285    -1.7047529614
C      3.5961168513    -0.0114489096     0.0005535578
H      2.1834337800    -1.2825186758     0.9968832870
H      2.1532112608     0.3935140528     1.5798389928
C      4.7509202061    -0.4577265078     0.9133333249
Cl     3.7329515918     1.8245130590    -0.4600687453
H      3.6475009069    -0.5457921432    -0.9639298921
C      6.1445361020    -0.6435567018     0.2903884775
H      4.4652970987    -1.4758748644     1.2546884477
H      4.8068478410     0.1703570915     1.8201804191
C      7.0829828488    -1.4732058689     1.1793857463
Cl     6.9785383602     1.0342762263    -0.0662729853
H      6.0619586399    -1.1120006112    -0.7065743781
C     -7.7019296488     0.4243093739     2.1209756015
Cl    -7.6739061208    -0.6684904387    -0.4300797710
H     -6.7288283645     1.3926985506     0.4289277868
H     -8.7027139577     0.8235190613     1.8832014907
H     -7.2463514812     1.0817132490     2.8821795391
H     -7.8191842841    -0.5800672233     2.5630709577
C      8.4273021448    -1.8538068818     0.5374298762
H      6.5254826716    -2.3989538625     1.4221813812
H      7.2448686778    -0.9512518681     2.1417156732
H      8.9825477454    -2.5408403979     1.1972853014
H      9.0631864541    -0.9700106159     0.3623940950
H      8.2770499845    -2.3638326152    -0.4301848041
