44
pvc config_46990 from config_46990.mcos (coord_rad bohr -> angstrom)
C      6.3071159416    -1.0001114208    -0.0158443441
C      5.7434725155     0.3104808663    -0.5939309151
C      4.4017611693     0.8722702844    -0.0663342774
H      5.6579877022     0.2253414260    -1.6935652606
H      6.5257579650     1.0736711994    -0.4014462395
C      3.1344262307     0.0596202503    -0.3802509742
H      4.2973099613     1.8981407523    -0.4535701584
Cl     4.5284658877     1.1003541931     1.8137174847
C      1.7911096480     0.7332790419    -0.0434045288
H      3.1486995212    -0.9041659770     0.1614861291
H      3.1632076302    -0.1892020056    -1.4581380937
C      0.5896487275    -0.1686685772    -0.3699932998
Cl     1.6277001859     2.3358262455    -1.0386781239
H      1.7672739235     1.0516023014     1.0115538959
C     -0.8164837867     0.3696730954    -0.0609297288
H      0.7397219351    -1.1212004244     0.1767330981
H      0.6095191711    -0.4210740525    -1.4492778508
C     -1.9217114647    -0.6244327013    -0.4523717546
H     -0.9774320547     1.3469849410    -0.5441783015
Cl    -0.9382907989     0.7184191830     1.7974549784
C     -3.3831577049    -0.1995588368    -0.2105416767
H     -1.7649263767    -1.5738801328     0.0956584119
H     -1.7830092610    -0.8567611192    -1.5279275288
C     -4.3651701063    -1.3208304198    -0.5993836977
Cl    -3.7170159777     1.3693081617    -1.2079178245
H     -3.5358684290     0.0973094488     0.8391930066
C     -5.8521347369    -1.2087826302    -0.1902388674
H     -3.9589431073    -2.2477968855    -0.1442721912
H     -4.3430879450    -1.4702765538    -1.6947352045
C     -6.7178280852    -0.1357393095    -0.8614037804
Cl    -5.9517149434    -1.0175445966     1.7059664167
H     -6.3089315495    -2.1978176036    -0.3624578088
C      7.7568780167    -1.2336952087    -0.4364499507
Cl     5.2919166617    -2.5003852604    -0.5960137822
H      6.2049711238    -1.0205493740     1.0803001437
H      8.1555678894    -2.1836269897    -0.0402232017
H      8.3781621072    -0.4134180272    -0.0354893601
H      7.8627519140    -1.2366738609    -1.5350608737
C     -8.2303087968    -0.3566025650    -0.6744715389
H     -6.4705638468    -0.1823365027    -1.9396770007
H     -6.4283816322     0.8734968214    -0.5243159304
H     -8.5303915031    -0.2513456147     0.3815841392
H     -8.5311326359    -1.3623707892    -1.0166409286
H     -8.8020051707     0.3829130641    -1.2592324230
