44
pvc config_14260 from config_14260.mcos (coord_rad bohr -> angstrom)
C      4.7251742356    -1.5736409248     1.1090664360
C      4.8528594439    -0.0810420473     0.7615701087
C      3.7408804724     0.4586335176    -0.1651166313
H      5.8514328369     0.0954027372     0.3206265117
H      4.8237477516     0.4720699027     1.7210337351
C      2.3636811006     0.5642860446     0.5097370922
H      3.6904874851    -0.1161310689    -1.1025889169
Cl     4.2871617356     2.2003222764    -0.6952465790
C      1.2008608153     1.1356844437    -0.3208267650
H      2.4585032077     1.1902443806     1.4196431425
H      2.0849744331    -0.4502157911     0.8571888860
C     -0.1085042364     1.2144258268     0.4851121344
Cl     0.9325704375     0.0196295243    -1.8238417781
H      1.4631752258     2.1211432120    -0.7376205512
C     -1.3415451692     1.7949852646    -0.2263142930
H      0.0985113509     1.8164575313     1.3918503569
H     -0.3703911540     0.1969267590     0.8374802977
C     -2.5948132798     1.8849399619     0.6736640429
H     -1.5478707841     1.2713098098    -1.1715801953
Cl    -0.9536240108     3.5794818348    -0.7443159231
C     -3.2108290075     0.5039332043     1.0028139742
H     -3.3691316381     2.5002857151     0.1790726253
H     -2.3126233016     2.3987843251     1.6113243992
C     -3.8901730107    -0.1810995981    -0.1933319047
Cl    -4.5278723875     0.8502274415     2.3377543641
H     -2.4977897720    -0.1592802300     1.5137939089
C     -4.4490391132    -1.5897618374     0.1171081938
H     -3.1386704547    -0.2662451265    -1.0005960754
H     -4.6875009132     0.4850446419    -0.5709205017
C     -3.4144849366    -2.7020692756     0.3637676946
Cl    -5.5446018799    -2.0547343040    -1.3754147571
H     -5.1612099900    -1.5404475580     0.9553732733
C      5.7434087588    -2.0280241277     2.1481402406
Cl     4.9900338784    -2.6077508760    -0.4738925193
H      3.7034093129    -1.8395702932     1.4190997330
H      6.7754463307    -1.8146326421     1.8211576306
H      5.6545891621    -3.1062025844     2.3674353141
H      5.5590392310    -1.4766505221     3.0877769792
C     -2.3196015181    -2.8517213900    -0.7057055057
H     -3.9375313779    -3.6698893447     0.4917835253
H     -2.9554391337    -2.4805023976     1.3473329534
H     -2.7536681197    -3.0155163132    -1.7065361438
H     -1.6805798965    -3.7212049067    -0.4754160774
H     -1.6605092689    -1.9703448590    -0.7605514454
