44
pvc config_20310 from config_20310.mcos (coord_rad bohr -> angstrom)
C      5.1494521266    -0.3358261132     0.7217740727
C      4.2990889759    -1.2816185937    -0.1400095490
C      2.8498097307    -0.8048536321    -0.4029730729
H      4.2957282527    -2.2820183695     0.3313001432
H      4.8259911474    -1.3830879922    -1.1092428381
C      2.7702007652     0.4330059129    -1.3070350655
H      2.3192147858    -0.6495630826     0.5488749714
Cl     1.9706444764    -2.2973773425    -1.1955862351
C      1.4003146108     1.1069564439    -1.5525234804
H      3.2957611960     0.2464975908    -2.2612211713
H      3.3610071907     1.2138759570    -0.7848413488
C      0.4903901716     1.1912060159    -0.3116523105
Cl     0.4577071699     0.2473075959    -2.9513617791
H      1.5900096669     2.1189184150    -1.9437138257
C     -0.7908038323     2.0301888197    -0.4431956106
H      1.0983390028     1.5918253627     0.5239373140
H      0.1855578353     0.1686496278    -0.0143748059
C     -1.6505861255     2.0789718439     0.8405916558
H     -1.3817640907     1.7294213188    -1.3213239037
Cl    -0.2983454719     3.8292847193    -0.7953287225
C     -2.3425235314     0.7296240014     1.1494055183
H     -2.4306800381     2.8557388288     0.7396950427
H     -1.0007324263     2.3675265075     1.6875051804
C     -3.4549736206     0.3541787007     0.1595897191
Cl    -3.1080228460     0.9358580145     2.8819866958
H     -1.6157228834    -0.0832686151     1.2872530201
C     -4.1046475672    -1.0267524822     0.4088889100
H     -3.0051651344     0.3423356049    -0.8532016873
H     -4.2166782461     1.1556536435     0.1633397227
C     -3.1930576086    -2.2339724950     0.1772436233
Cl    -5.5917213275    -1.1132021643    -0.7902262129
H     -4.5747115474    -1.0732950938     1.4038707284
C      6.6018166359    -0.7813893652     0.8387242664
Cl     4.4019833472    -0.2637055421     2.4788073296
H      5.0850122491     0.7074952929     0.3794719642
H      6.6794784299    -1.8083200505     1.2352797510
H      7.1884350832    -0.1045404119     1.4837267054
H      7.0569476222    -0.7657438386    -0.1680323319
C     -3.8305168480    -3.6105253758     0.4362434997
H     -2.3375002354    -2.1094288223     0.8710660672
H     -2.7675843052    -2.1802278084    -0.8423792474
H     -4.2521183261    -3.6731921916     1.4553093308
H     -3.0716935738    -4.4034601292     0.3377621214
H     -4.6390858707    -3.8257636058    -0.2814422497
