44
pvc config_89110 from config_89110.mcos (coord_rad bohr -> angstrom)
C      5.7679306286     0.9259049591     0.0885759554
C      4.3716256505     0.8407773095    -0.5659480268
C      3.4178037957    -0.1829016970     0.0718308769
H      4.4539437854     0.6255716205    -1.6473104235
H      3.8831852013     1.8308278762    -0.4690805223
C      2.0109684710    -0.1162949076    -0.5481041572
H      3.3716639889    -0.0664185706     1.1655849740
Cl     4.1131207836    -1.9289700331    -0.1871234450
C      0.9390073724    -1.0486622817     0.0434202452
H      2.0774163912    -0.3392637034    -1.6321169020
H      1.6668636310     0.9331236375    -0.4623657636
C     -0.4038213969    -0.9264716796    -0.7003144627
Cl     0.6695390865    -0.6038142672     1.8607243736
H      1.2883652658    -2.0935556544     0.0533457100
C     -1.5656141649    -1.8152969403    -0.2200836503
H     -0.2093659844    -1.1456099202    -1.7682111219
H     -0.7393041559     0.1265112861    -0.6603720821
C     -2.8673920974    -1.6376335004    -1.0483257547
H     -1.7569500612    -1.7005832068     0.8577697589
Cl    -1.0220440207    -3.6290373151    -0.4197306403
C     -3.8666071334    -0.6055447410    -0.4843931610
H     -3.3920446090    -2.6054651905    -1.1419921959
H     -2.6212511651    -1.3190705279    -2.0791366375
C     -3.3261055709     0.8144555239    -0.2592760486
Cl    -4.5600295448    -1.2628503068     1.1664925535
H     -4.7545637214    -0.5863001442    -1.1331043209
C     -4.4257074761     1.8627445997     0.0633083422
H     -2.8001409011     1.1242217930    -1.1835433862
H     -2.5688080599     0.7841167246     0.5428165673
C     -4.9381610440     2.6535850277    -1.1507216066
Cl    -3.6713364273     3.1429252295     1.2664688304
H     -5.2521985534     1.4171499383     0.6367087488
C      5.7743161850     1.4668166872     1.5138238011
Cl     6.7832393352     2.1144264622    -1.0105096559
H      6.3085186590    -0.0294674266     0.0122926198
H      5.2236489003     2.4205249353     1.5845164626
H      6.7978976595     1.6144061480     1.9016377864
H      5.2776550312     0.7350482340     2.1761339892
C     -5.6220627872     1.7537105868    -2.2007462953
H     -4.0906326007     3.1890056845    -1.6162337395
H     -5.6580512952     3.4224463927    -0.8137499874
H     -4.9027186057     1.1065804622    -2.7314049199
H     -6.1175257200     2.3782462965    -2.9628115278
H     -6.3950022865     1.1112635583    -1.7451237093
