44
pvc config_41960 from config_41960.mcos (coord_rad bohr -> angstrom)
C      4.9233701310     1.9334657211     0.1280102234
C      4.8285202140     0.8298659524    -0.9509306437
C      4.1517311103    -0.4975934970    -0.5406625458
H      5.8874227272     0.6250826687    -1.2030682634
H      4.3619769301     1.2234510775    -1.8719683728
C      2.6142640661    -0.4797064162    -0.5738084398
H      4.5334373956    -0.8647717168     0.4248371389
Cl     4.7444504085    -1.7899349340    -1.8131610834
C      1.8895119897    -1.7922721362    -0.2197915757
H      2.2822155075    -0.1818878339    -1.5882870170
H      2.2778883138     0.3252462864     0.1053997345
C      0.3632936419    -1.7693647250    -0.4568287521
Cl     2.2970847178    -2.2593246261     1.5716237690
H      2.3079208527    -2.6201835494    -0.8141681764
C     -0.4493915663    -0.5348757163    -0.0373620195
H     -0.1053114180    -2.6881750604    -0.0595973157
H      0.2537148337    -1.8287697897    -1.5596797040
C     -1.8933309200    -0.6041098626    -0.5797140385
H      0.0358727978     0.3968601149    -0.3691925598
Cl    -0.5523558649    -0.3785933342     1.8506959133
C     -2.8182642826     0.5897160445    -0.2903402028
H     -2.3819138180    -1.5122745926    -0.1739750997
H     -1.8281951228    -0.7501395036    -1.6762229142
C     -4.2390609163     0.4349673827    -0.8789775938
Cl    -2.0694528088     2.1427264685    -1.0890777694
H     -2.8574917638     0.8206415483     0.7855038092
C     -5.1223107311    -0.5654078052    -0.1145742597
H     -4.1650199884     0.0702162151    -1.9225302888
H     -4.7505457927     1.4119454253    -0.9217390938
C     -6.4214357226    -0.9388529306    -0.8479340666
Cl    -5.5327691448     0.1680075860     1.6002911898
H     -4.5676037098    -1.4832332125     0.1336359766
C      5.4420350434     1.4879626020     1.4901328710
Cl     3.2474767430     2.8076902894     0.3934257998
H      5.5575477811     2.7374981771    -0.2768271692
H      5.5523598049     2.3418357584     2.1798024916
H      6.4408862690     1.0310044061     1.3611756007
H      4.7843262057     0.7420812769     1.9646492296
C     -7.2993439353     0.2403162558    -1.3008006699
H     -7.0118392791    -1.6299387944    -0.2172803542
H     -6.1029586162    -1.5302286531    -1.7287116097
H     -8.2293935402    -0.1344260634    -1.7604469947
H     -6.7947745372     0.8702131953    -2.0525409633
H     -7.5834294318     0.8835727603    -0.4518407259
