44
pvc config_17400 from config_17400.mcos (coord_rad bohr -> angstrom)
C      4.7251742361    -1.5736409541     1.1090664043
C      4.8528594544    -0.0810420711     0.7615701117
C      3.7408804887     0.4586335249    -0.1651166153
H      5.8514328499     0.0954027194     0.3206265226
H      4.8237477608     0.4720698540     1.7210337516
C      2.3636811157     0.5642860451     0.5097371090
H      3.6904874985    -0.1161310400    -1.1025889145
Cl     4.2871617677     2.2003222921    -0.6952465231
C      1.2008608326     1.1356844546    -0.3208267441
H      2.4585032234     1.1902443657     1.4196431690
H      2.0849744459    -0.4502157945     0.8571888874
C     -0.1085042212     1.2144258433     0.4851121518
Cl     0.9325704491     0.0196295395    -1.8238417633
H      1.4631752483     2.1211432190    -0.7376205338
C     -1.3415451550     1.7949852641    -0.2263142881
H      0.0985113603     1.8164575607     1.3918503664
H     -0.3703911345     0.1969267803     0.8374803310
C     -2.5948132728     1.8849399584     0.6736640385
H     -1.5478707572     1.2713098031    -1.1715801892
Cl    -0.9536240040     3.5794818346    -0.7443159296
C     -3.2108290173     0.5039332054     1.0028139555
H     -3.3691316224     2.5002857289     0.1790726264
H     -2.3126232955     2.3987843057     1.6113244031
C     -3.8901730110    -0.1810995936    -0.1933319305
Cl    -4.5278724142     0.8502274584     2.3377543197
H     -2.4977898006    -0.1592802350     1.5137939060
C     -4.4490391669    -1.5897618125     0.1171081752
H     -3.1386704383    -0.2662451597    -1.0005960813
H     -4.6875008840     0.4850446640    -0.5709205613
C     -3.4144850289    -2.7020692627     0.3637677883
Cl    -5.5446018501    -2.0547343067    -1.3754148271
H     -5.1612100955    -1.5404474857     0.9553732085
C      5.7434087680    -2.0280241885     2.1481401886
Cl     4.9900338586    -2.6077508730    -0.4738925751
H      3.7034093146    -1.8395703224     1.4190997094
H      5.5590392679    -1.4766505891     3.0877769367
H      6.7754463399    -1.8146327192     1.8211575639
H      5.6545891549    -3.1062026480     2.3674352522
C     -2.3196015371    -2.8517214362    -0.7057053286
H     -3.9375314955    -3.6698893170     0.4917836204
H     -2.9554392911    -2.4805023551     1.3473330702
H     -1.6805799343    -3.7212049426    -0.4754158125
H     -1.6605092811    -1.9703449105    -0.7605512672
H     -2.7536680696    -3.0155164095    -1.7065359889
