44
pvc config_58460 from config_58460.mcos (coord_rad bohr -> angstrom)
C     -4.7164934016     1.2151118647    -0.0511465164
C     -3.4592770969     0.5866990334    -0.6914445914
C     -2.7486742663    -0.4657857365     0.1760846874
H     -2.7286748834     1.3665295532    -0.9755981880
H     -3.7637007571     0.0738383592    -1.6255137124
C     -1.5974019417    -1.1478721384    -0.5886137237
H     -3.4552039798    -1.2156491762     0.5638407670
Cl    -2.0469853873     0.3671451098     1.7244606275
C     -0.8403822388    -2.2686036921     0.1497432918
H     -0.8624408559    -0.3808013834    -0.8974949749
H     -2.0245444260    -1.5608743895    -1.5223166150
C      0.2959639035    -2.9127315610    -0.6879332716
Cl    -2.0868224885    -3.6531408331     0.5408045131
H     -0.4777412125    -1.9391558165     1.1353869595
C      1.6939406592    -2.2882359131    -0.4929658178
H      0.0558049735    -2.8533942566    -1.7665355128
H      0.3684444416    -3.9896725094    -0.4479066659
C      1.8141413345    -0.7745833735    -0.7439421136
H      2.4085394810    -2.8241430201    -1.1389684408
Cl     2.2889558499    -2.6534397642     1.2727766481
C      3.2368987771    -0.1812939601    -0.6956927144
H      1.2080493332    -0.2254810232     0.0026061300
H      1.3711937453    -0.5660865796    -1.7378713513
C      3.2864465835     1.3323276637    -1.0018986657
Cl     4.2891733727    -1.0284449319    -2.0297982961
H      3.7393960631    -0.4217382679     0.2530684800
C      2.7165041648     2.2337459872     0.1069723973
H      2.6902855798     1.5315174076    -1.9135080286
H      4.3220135863     1.6527959287    -1.2205664530
C      2.5979083869     3.6985843788    -0.3294750132
Cl     3.8508264793     2.1172366759     1.6365119529
H      1.7472908508     1.8718263352     0.4843211697
C     -5.8866381176     0.2560756705     0.1359263677
Cl    -5.2639774859     2.6073352623    -1.2389662914
H     -4.4717920118     1.7461549970     0.8811995080
H     -5.6134838634    -0.4975175089     0.8964124211
H     -6.1251764026    -0.2754606659    -0.8012727025
H     -6.7952966351     0.7692536850     0.4977304299
C      1.9397263892     4.6305433324     0.7018684553
H      1.9836613663     3.6868867783    -1.2517972900
H      3.5936424281     4.0797011182    -0.6255229322
H      0.9575112342     4.2409098945     1.0207986995
H      1.7800949603     5.6301796971     0.2655072358
H      2.5662523847     4.7527356858     1.6006888156
