44
pvc config_65520 from config_65520.mcos (coord_rad bohr -> angstrom)
C     -4.5275294617    -1.9305224472    -0.0434653331
C     -4.1220957992    -0.4462921975    -0.1989681708
C     -3.4896835611     0.1661089551     1.0595501605
H     -4.9829468554     0.1758944798    -0.5057355482
H     -3.3705432156    -0.3842396607    -1.0103998953
C     -2.9867283185     1.6180635912     0.8807294088
H     -2.7164814208    -0.4841338439     1.4930183345
Cl    -4.8099818380     0.2531557987     2.4307056329
C     -1.7726534414     1.7183056279    -0.0716249185
H     -2.6974387154     2.0338191612     1.8636926786
H     -3.8192838738     2.2328863598     0.4913986539
C     -0.4798549441     1.1069268906     0.4914233581
Cl    -1.4927468486     3.5746115433    -0.3519871175
H     -2.0029982918     1.3217405165    -1.0716604177
C      0.7799131705     1.1923386817    -0.3898798215
H     -0.6823365967     0.0409569340     0.7175786919
H     -0.2412437832     1.5935365360     1.4578299298
C      2.0155965317     0.5805140263     0.2940391703
H      0.9755472157     2.2330946537    -0.6938760704
Cl     0.4653969043     0.2581422796    -2.0048436849
C      3.3492475237     0.6255705366    -0.4701066548
H      1.8023755949    -0.4813156466     0.5273397801
H      2.1436243361     1.0944324725     1.2678739263
C      4.5451423706     0.0482621026     0.3215883218
Cl     3.7835465545     2.4430205636    -0.8212416245
H      3.2626442370     0.1614475229    -1.4642604033
C      4.4872328624    -1.4675953160     0.5662619945
H      4.5732472568     0.5319405715     1.3161102378
H      5.5008842943     0.2888160671    -0.1805454349
C      5.6440773645    -2.0008583784     1.4280294238
Cl     4.5847880106    -2.3686585649    -1.1168907167
H      3.5199303463    -1.7904101784     0.9796908501
C     -3.3648653376    -2.9039012901     0.1106504371
Cl    -5.4763164402    -2.3743803067    -1.6415757147
H     -5.2761614375    -2.0579592693     0.7525409890
H     -2.8721977963    -2.7236619428     1.0829995574
H     -2.6130994556    -2.7637595136    -0.6844522221
H     -3.6991241349    -3.9566169728     0.1064780721
C      5.6249495253    -1.4244163008     2.8601667738
H      6.6067481348    -1.7656259713     0.9379091137
H      5.5702600826    -3.1026363250     1.4841413344
H      4.6222535588    -1.5054377505     3.3142278497
H      5.9234606273    -0.3638094953     2.8871420778
H      6.3267211573    -1.9841379292     3.4997578443
