44
pvc config_2510 from config_2510.mcos (coord_rad bohr -> angstrom)
C      6.2522865606    -0.7585761028     0.0971205472
C      4.7715133783    -0.8581294343    -0.3287611731
C      3.9027079889     0.3488918360     0.0608791803
H      4.3061595504    -1.7772599863     0.0725467101
H      4.7331377490    -0.9321457866    -1.4341437031
C      2.4809484471     0.2463355200    -0.5207888168
H      4.3767091295     1.2995558925    -0.2272075208
Cl     3.7789335183     0.4435283722     1.9526666383
C      1.5373199737     1.4332057492    -0.2611205263
H      1.9952068718    -0.6669408683    -0.1295219349
H      2.5843233843     0.1023841748    -1.6136626804
C      0.1254183832     1.2883027525    -0.8856130728
Cl     2.3213612869     2.9721890748    -1.0742507368
H      1.4838722580     1.6782338385     0.8126154403
C     -0.9213156180     0.5557841932    -0.0227387261
H      0.1861355992     0.8262744236    -1.8870326508
H     -0.2948674988     2.3036445805    -1.0238042832
C     -2.3360010900     0.6911190445    -0.6237680796
H     -0.8953846011     0.9263387768     1.0142133802
Cl    -0.5249760516    -1.2878769752     0.1468435016
C     -3.4932334563     0.1506589856     0.2364669171
H     -2.3745915138     0.1651199479    -1.5983171743
H     -2.5075550535     1.7645280088    -0.8328378583
C     -4.8425672113     0.2410661615    -0.4938740866
Cl    -3.5805198263     1.1664153174     1.8370579770
H     -3.2862726135    -0.8744572922     0.5800049686
C     -6.0297804653    -0.4025311214     0.2548257898
H     -4.7103344253    -0.2710561536    -1.4658898476
H     -5.0547407458     1.3022120066    -0.7215118443
C     -5.9545878405    -1.9253299070     0.4673538463
Cl    -7.5803480130     0.0261963696    -0.7728932207
H     -6.2071070007     0.1061764988     1.2153177232
C      7.0523089349     0.3248810087    -0.6167973135
Cl     7.0293101781    -2.4537139814    -0.3219939684
H      6.3537964604    -0.6860736475     1.1905085326
H      6.6709262253     1.3141290853    -0.3055567193
H      6.9463629575     0.2473547423    -1.7124894575
H      8.1255149128     0.2931644726    -0.3576923760
C     -5.6010592603    -2.7575028618    -0.7772096825
H     -6.9084504384    -2.2882815195     0.8966988631
H     -5.1929706019    -2.0856623793     1.2554581698
H     -6.2965305553    -2.5562319431    -1.6096482193
H     -5.6640297563    -3.8343344227    -0.5455200985
H     -4.5770012176    -2.5602764083    -1.1346894857
