44
pvc config_72680 from config_72680.mcos (coord_rad bohr -> angstrom)
C      4.9839331025    -1.8914026741    -0.2538671725
C      4.4736317284    -0.5050360570     0.2031358964
C      3.8815081503     0.3514512261    -0.9261258861
H      5.2719834900     0.0710533725     0.7063381382
H      3.6712668026    -0.6686271542     0.9491860538
C      3.2933802069     1.7031625184    -0.4565806212
H      3.1704214989    -0.2127494886    -1.5462699700
Cl     5.2725286369     0.8035366321    -2.1472837378
C      2.0113844281     1.5349117522     0.3914744687
H      3.0525066169     2.3293454163    -1.3356091912
H      4.0646552734     2.2358538716     0.1299859192
C      0.7930691441     1.0435139802    -0.4061486806
Cl     1.6245253031     3.2601897182     1.0826578895
H      2.1864121175     0.9157830416     1.2836631699
C     -0.5305868638     0.8753962216     0.3638828505
H      1.0592898181     0.0709957633    -0.8655422912
H      0.6052143711     1.7454395183    -1.2426226970
C     -1.6825109320     0.4320963804    -0.5551550140
H     -0.7906642018     1.7991057034     0.9045041719
Cl    -0.2840671768    -0.4302910573     1.7084675428
C     -3.0710872788     0.2678154516     0.0869189924
H     -1.4242355533    -0.5389369150    -1.0210044048
H     -1.7475522707     1.1712993724    -1.3789753487
C     -4.1139319151    -0.2204309735    -0.9314319940
Cl    -3.6238640973     1.9438137896     0.7859726556
H     -3.0215409879    -0.3888107266     0.9685424075
C     -5.5076540840    -0.5428071832    -0.3492047614
H     -3.7041146069    -1.1429284943    -1.3899764658
H     -4.1934125895     0.5289374258    -1.7405216250
C     -5.5585584660    -1.7626563529     0.5748079499
Cl    -6.6410806619    -0.8422396671    -1.8590972575
H     -5.9567113571     0.3377957494     0.1373024788
C      3.9010123299    -2.8566339924    -0.7208087227
Cl     5.8486676403    -2.6486105480     1.2726107740
H      5.7919500550    -1.7941829448    -0.9941026584
H      3.0880401255    -2.9406610906     0.0201571998
H      4.3022766957    -3.8646169279    -0.9281805135
H      3.4673909846    -2.4796276413    -1.6644381084
C     -6.9362415880    -2.0852932946     1.1797406233
H     -4.8526730483    -1.5497197239     1.4026002494
H     -5.1461111803    -2.6407569347     0.0424154056
H     -7.6611355447    -2.3821278198     0.4040612859
H     -7.3517600669    -1.2170575379     1.7216631289
H     -6.8496481686    -2.9181085976     1.8964223607
