44
pvc config_52170 from config_52170.mcos (coord_rad bohr -> angstrom)
C      5.7066406799    -0.8830659001     0.3887815263
C      4.4913456858    -0.3407378413    -0.3951632779
C      3.3534996637     0.2201379698     0.4730261530
H      4.0791406542    -1.1142192783    -1.0690266668
H      4.8382717169     0.4951242014    -1.0350779825
C      2.2255712231     0.8332111226    -0.3808698334
H      3.7239987619     0.9484930173     1.2100435677
Cl     2.6183116188    -1.1798405323     1.5190073855
C      1.0890217800     1.5275551593     0.3898106948
H      1.7791648412     0.0360657318    -1.0077791211
H      2.6881068108     1.5617613427    -1.0747002003
C     -0.0221828430     2.1056758861    -0.5188534647
Cl     1.8130858213     3.0141132467     1.3221939567
H      0.6863701955     0.8793336526     1.1824717542
C     -0.9021753368     0.9991739915    -1.1475744433
H      0.4549231161     2.7099710968    -1.3120346626
H     -0.6747805065     2.7822763374     0.0629444780
C     -1.8512714167     0.3147118272    -0.1473552482
H     -0.3094521910     0.2597964671    -1.7069111385
Cl    -1.9532315970     1.8625069947    -2.4722973491
C     -2.7759950621    -0.7863989293    -0.7013108882
H     -2.4858143466     1.0911088242     0.3233374264
H     -1.2359085767    -0.1210691932     0.6642673816
C     -3.7004702266    -1.4160600260     0.3644374893
Cl    -1.6916104103    -2.1907182772    -1.3766515408
H     -3.3487634779    -0.4315177802    -1.5713443563
C     -4.8672431364    -0.5144735144     0.8042194428
H     -3.1053010860    -1.6406564116     1.2709261121
H     -4.1118065996    -2.3781493103     0.0074834165
C     -5.6200003202    -1.0700211771     2.0183255376
Cl    -6.0765601932    -0.3217666502    -0.6591598250
H     -4.5448603740     0.5206809541     0.9993192256
C      6.4958305550     0.1720347419     1.1557135870
Cl     6.8600576765    -1.6634480659    -0.9194945214
H      5.4266016385    -1.7303415101     1.0324706475
H      5.8691965917     0.5573955409     1.9801087051
H      6.7676358694     1.0222540045     0.5068549850
H      7.4144478964    -0.2399041750     1.6100770441
C     -6.7346883469    -0.1598744284     2.5611475285
H     -4.8529091023    -1.2132823458     2.8051678078
H     -6.0139544462    -2.0770239769     1.7830858332
H     -7.5733987915    -0.0728683263     1.8508618950
H     -6.3546838063     0.8561100212     2.7659091467
H     -7.1344217536    -0.5669463439     3.5043680792
