44
pvc config_95180 from config_95180.mcos (coord_rad bohr -> angstrom)
C      5.8006855267    -0.9265598996     0.5328733269
C      4.8188746449    -0.3704871651    -0.5224174369
C      3.4593634651     0.0676009235     0.0569939382
H      4.6489995975    -1.1024334157    -1.3346786647
H      5.2736179787     0.5286413761    -0.9799353596
C      2.6261769687     0.8389882678    -0.9872657263
H      3.5824753823     0.6662478656     0.9725971586
Cl     2.5470560276    -1.4800955529     0.6730204759
C      1.3925980182     1.5904464105    -0.4233552977
H      2.3391029935     0.1712910005    -1.8189790077
H      3.3257228987     1.5934299804    -1.3965482822
C      0.1196241841     0.7416985078    -0.2460549430
Cl     0.9889958402     2.9495364136    -1.7001105347
H      1.6426132285     2.1304105069     0.5040868773
C     -1.1335334059     1.4820606984     0.2527637664
H      0.3468966735    -0.0878174045     0.4472055056
H     -0.1205762629     0.2773305950    -1.2205304836
C     -2.3798861822     0.5952941375     0.4825385686
H     -1.3799251881     2.3403153975    -0.3932399460
Cl    -0.7365949152     2.2384752657     1.9541112173
C     -2.8834233910    -0.0884300850    -0.8120676149
H     -3.1988612609     1.2440068699     0.8454761916
H     -2.1789991175    -0.1604147760     1.2575804061
C     -4.4181185881    -0.2215443520    -0.9642784495
Cl    -2.0862835248    -1.8000235092    -1.0218284589
H     -2.5226413914     0.4606096792    -1.6974374481
C     -5.1680293641    -1.2329815558    -0.0783529451
H     -4.6351048562    -0.5272117213    -2.0075011789
H     -4.8412307157     0.7912492252    -0.8436712086
C     -6.6090628442    -1.5035751329    -0.5502314668
Cl    -5.1944941475    -0.6480856036     1.7315412438
H     -4.6066539300    -2.1792941223    -0.0367196030
C      6.3355078833     0.1062592738     1.5178211881
Cl     7.2768796013    -1.6307376031    -0.4546415735
H      5.3844218967    -1.8052664655     1.0478310603
H      6.7471184283     0.9857986000     0.9939712623
H      7.1130279440    -0.3128499343     2.1809091089
H      5.5079158142     0.4487040299     2.1649010101
C     -7.4878953748    -0.2588136216    -0.7577766719
H     -7.1036949964    -2.1981296491     0.1548836316
H     -6.5107371818    -2.0567772758    -1.5043814457
H     -7.1115146633     0.3833014861    -1.5714812463
H     -7.5480453443     0.3524871974     0.1582660649
H     -8.5157181593    -0.5575474681    -1.0253161097
