44
pvc config_79980 from config_79980.mcos (coord_rad bohr -> angstrom)
C      5.3556641513     1.9491314549    -0.3638652419
C      5.2263890980     0.5691397813    -1.0297479401
C      4.1722868588    -0.3556097964    -0.3814950695
H      6.2209948886     0.0863203766    -1.0393011529
H      4.9482176828     0.7499345614    -2.0866833565
C      2.7202854542     0.0774803871    -0.6427482275
H      4.3688905313    -0.4901237987     0.6932946629
Cl     4.4330427454    -2.0786234123    -1.1394084972
C      1.5977553614    -0.8049526490    -0.0686391553
H      2.5588859405     0.1473476951    -1.7370774175
H      2.6016963141     1.1047475864    -0.2445432065
C      0.1995716045    -0.2807146935    -0.4343124028
Cl     1.7680999478    -0.8425072780     1.8171586145
H      1.7226048598    -1.8523649388    -0.3877608293
C     -1.0168901613    -1.0695605739     0.0756396583
H      0.1548001962    -0.2207633056    -1.5401147037
H      0.0911447432     0.7570683752    -0.0601158314
C     -2.3468598375    -0.4342189190    -0.3661670755
H     -0.9872198576    -1.1853436862     1.1705323868
Cl    -0.9359956950    -2.8348028117    -0.6079471881
C     -3.6404677914    -1.1033877690     0.1250844099
H     -2.3906058246    -0.4095192598    -1.4735553854
H     -2.3235789312     0.6201138660    -0.0289391274
C     -4.9399433177    -0.5113217997    -0.4694393931
Cl    -3.6577395274    -1.0895440796     2.0220974972
H     -3.6235380219    -2.1766164985    -0.1233778280
C     -5.0797365966     1.0263391709    -0.5089686373
H     -5.8203247444    -0.9514909795     0.0343069611
H     -4.9564592553    -0.8972510527    -1.5076559078
C     -5.3507836654     1.7253028833     0.8233114950
Cl    -6.5511357437     1.3572914315    -1.6975140990
H     -4.2316083310     1.4983805369    -1.0311342864
C      6.2740260771     2.8931476509    -1.1307832696
Cl     6.0648292309     1.7282988209     1.3954068918
H      4.3746927982     2.4147073201    -0.1854780392
H      5.8394957900     3.0727787017    -2.1306680898
H      7.2785431964     2.4569585590    -1.2661687210
H      6.3744818730     3.8699039727    -0.6265281985
C     -5.4951498856     3.2561961777     0.7380691772
H     -4.4916377208     1.4827276102     1.4772229276
H     -6.2351626833     1.2676802356     1.3045159498
H     -6.4078138454     3.5493863378     0.1939560338
H     -4.6304836761     3.7108217142     0.2235665909
H     -5.5516163077     3.6908528338     1.7495918755
