44
pvc config_60510 from config_60510.mcos (coord_rad bohr -> angstrom)
C      5.0066587101    -1.6549796905    -0.4193945129
C      4.3974682441    -0.3757547372     0.2005039121
C      3.8187584851     0.6082515076    -0.8269067024
H      5.1353543313     0.1556844756     0.8295895015
H      3.5662095670    -0.6851165440     0.8640503818
C      3.1318223269     1.8488759429    -0.2085624380
H      3.1723873002     0.1078899321    -1.5620454065
Cl     5.2428943165     1.2989854390    -1.8878251430
C      1.8335244403     1.4986932385     0.5548382399
H      2.8849873817     2.5719346600    -1.0079910176
H      3.8466347463     2.3412598373     0.4765316222
C      0.6813400951     1.0262511066    -0.3454576363
Cl     1.3050304996     3.1014738582     1.4244773929
H      2.0194115839     0.7910106221     1.3763480306
C     -0.6549128145     0.6879133813     0.3423651352
H      1.0293776477     0.1315687059    -0.8988271529
H      0.4749959606     1.8053182851    -1.1059015400
C     -1.7386186646     0.2722579793    -0.6657727084
H     -0.9959731344     1.5307454140     0.9648795930
Cl    -0.3703477885    -0.7362966727     1.5545010084
C     -3.1321253449    -0.0812237516    -0.1094490881
H     -1.3827296786    -0.6068810191    -1.2377366497
H     -1.8395362757     1.1009003394    -1.3958545008
C     -4.0775391919    -0.5460162024    -1.2321099055
Cl    -3.8134122612     1.4357845582     0.7839380377
H     -3.0554137519    -0.8552073731     0.6709484353
C     -5.4631067390    -1.1447435980    -0.8917376579
H     -3.5101873159    -1.3197357039    -1.7904301067
H     -4.2389683366     0.2827356992    -1.9450968407
C     -6.5801501142    -0.2081209476    -0.4054204634
Cl    -5.2283497956    -2.5210393932     0.4146172091
H     -5.8117486330    -1.6953689623    -1.7787904793
C      4.0064483312    -2.5847105112    -1.0958096104
Cl     5.8148349588    -2.5938154920     1.0356525279
H      5.8522083402    -1.4136274484    -1.0805796761
H      4.4701256329    -3.5352386795    -1.4142776435
H      3.6186785211    -2.0920390757    -2.0055052995
H      3.1512245037    -2.8073620087    -0.4353071891
C     -6.8719306302     0.8966751223    -1.4402029844
H     -6.3260435207     0.2439673495     0.5670583448
H     -7.4992184762    -0.8061096892    -0.2487635916
H     -6.0636792389     1.6445644556    -1.4802684575
H     -7.8049778357     1.4238918236    -1.1800855714
H     -6.9999909235     0.4784328058    -2.4543838255
