44
pvc config_69080 from config_69080.mcos (coord_rad bohr -> angstrom)
C     -4.5711870498     1.9878086288    -0.0003577331
C     -4.1838653230     0.5059281463     0.2128586088
C     -3.5910357859    -0.1723366764    -1.0310385872
H     -5.0458357326    -0.0882154090     0.5681609362
H     -3.4134421560     0.4689131991     1.0079657401
C     -3.1045132883    -1.6222565577    -0.7984437906
H     -2.8190559320     0.4456810927    -1.5111799572
Cl    -4.9453165812    -0.3001566950    -2.3654839998
C     -1.8662971071    -1.6966999430     0.1249236213
H     -2.8473553945    -2.0869050572    -1.7684033990
H     -3.9347586917    -2.2060282067    -0.3595516739
C     -0.5822403904    -1.1311272080    -0.5023348031
Cl    -1.6037114093    -3.5418266101     0.4834333965
H     -2.0631625376    -1.2510463038     1.1113121795
C      0.7019579091    -1.1940985633     0.3448609799
H     -0.7763486705    -0.0735535909    -0.7710317408
H     -0.3789371235    -1.6648996162    -1.4517310756
C      1.9241508486    -0.6389771316    -0.4076207225
H      0.8908897488    -2.2214955488     0.6950620001
Cl     0.4502051827    -0.1749961158     1.9186978759
C      3.2803414041    -0.6609583026     0.3161637881
H      1.7164563399     0.4103758648    -0.6960732124
H      2.0153108548    -1.2091233432    -1.3538025034
C      4.4537051454    -0.1199921853    -0.5312202834
Cl     3.7052316974    -2.4651283764     0.7371559137
H      3.2265490714    -0.1528067118     1.2913368654
C      4.4337987074     1.4046978040    -0.7304563329
H      4.4145548763    -0.5758123426    -1.5403661807
H      5.4202872570    -0.4161625464    -0.0880665574
C      5.4348411949     1.9080385376    -1.7843787565
Cl     4.7801750905     2.2480906702     0.9462152634
H      3.4254813903     1.7632661009    -0.9885158329
C     -3.3985152097     2.9341564164    -0.2290473229
Cl    -5.4707651164     2.5191080548     1.5995071139
H     -5.3386111531     2.0908628416    -0.7818956125
H     -2.6270203021     2.8163849715     0.5506916964
H     -3.7162435676     3.9914559304    -0.2622313247
H     -2.9363252615     2.7033104744    -1.2056351488
C      6.8943191564     1.4627095736    -1.5900917420
H      5.3804997429     3.0115180127    -1.8421562886
H      5.0539705162     1.5349799744    -2.7553378188
H      7.5364533049     1.9220519802    -2.3603719927
H      7.0111360320     0.3694719361    -1.6773784190
H      7.2838254338     1.7698752945    -0.6056368035
