44
pvc config_20190 from config_20190.mcos (coord_rad bohr -> angstrom)
C      5.1494520781    -0.3358261508     0.7217741779
C      4.2990889825    -1.2816186262    -0.1400095020
C      2.8498097457    -0.8048536813    -0.4029731004
H      4.2957282418    -2.2820184081     0.3313001754
H      4.8259912078    -1.3830880004    -1.1092427642
C      2.7702008185     0.4330059054    -1.3070350382
H      2.3192147315    -0.6495631839     0.5488749131
Cl     1.9706445816    -2.2973773734    -1.1955863921
C      1.4003146779     1.1069564530    -1.5525234742
H      3.2957612842     0.2464976247    -2.2612211331
H      3.3610072244     1.2138759241    -0.7848412611
C      0.4903901963     1.1912059971    -0.3116523353
Cl     0.4577072737     0.2473076573    -2.9513618318
H      1.5900097555     2.1189184333    -1.9437137861
C     -0.7908037977     2.0301888115    -0.4431956500
H      1.0983390019     1.5918253072     0.5239373265
H      0.1855578324     0.1686496036    -0.0143748801
C     -1.6505861055     2.0789718356     0.8405916073
H     -1.3817640481     1.7294213196    -1.3213239505
Cl    -0.2983454177     3.8292847111    -0.7953287458
C     -2.3425235063     0.7296239898     1.1494054746
H     -2.4306800213     2.8557388157     0.7396949876
H     -1.0007324117     2.3675264983     1.6875051355
C     -3.4549736572     0.3541787147     0.1595897327
Cl    -3.1080227104     0.9358579781     2.8819867012
H     -1.6157228548    -0.0832686336     1.2872529185
C     -4.1046475906    -1.0267524747     0.4088889292
H     -3.0051652271     0.3423356337    -0.8532016981
H     -4.2166782796     1.1556536600     0.1633397958
C     -3.1930576595    -2.2339724818     0.1772435099
Cl    -5.5917214622    -1.1132021024    -0.7902260593
H     -4.5747114784    -1.0732951289     1.4038707893
C      6.6018165546    -0.7813894642     0.8387245495
Cl     4.4019831053    -0.2637054772     2.4788073506
H      5.0850122870     0.7074952452     0.3794720232
H      7.0569476501    -0.7657439910    -0.1680320010
H      6.6794782579    -1.8083201389     1.2352800775
H      7.1884349609    -0.1045405136     1.4837270275
C     -3.8305168826    -3.6105253697     0.4362433828
H     -2.3375002239    -2.1094288405     0.8710658838
H     -2.7675844484    -2.1802277530    -0.8423793966
H     -3.0716936238    -4.4034601246     0.3377618928
H     -4.6390859754    -3.8257635615    -0.2814422987
H     -4.2521182624    -3.6731922293     1.4553092518
