91
pet config_42020 from config_42020.mcos (coord_rad bohr -> angstrom)
C     -1.3548514266     3.6878359581     0.1886877944
C     -1.9620225157     4.9551044213     0.2692132202
C     -1.6026712257     5.9488225490    -0.6572609665
C     -0.6658582541     5.6801237546    -1.6514631593
C     -0.4153775849     3.4201968332    -0.8039042985
C     -0.0672645797     4.4117984371    -1.7401514138
C     -3.0083431719     5.2597313784     1.2973120489
C      0.9070181288     4.1388414615    -2.8454125838
O      1.4314207159     2.8910582079    -2.7574479267
C      2.3037255869     2.4439299223    -3.8351592363
C      3.7549316334     2.8591289045    -3.6307341796
H      1.9620485233     2.8720327911    -4.7917044942
H      2.1877120930     1.3518462079    -3.8440186118
O     -3.2652160189     4.1867255029     2.0872639105
O     -3.5707668826     6.3407363587     1.4111266166
O      1.1827262497     4.9339595836    -3.7341529163
H     -1.6303642186     2.9112146390     0.9062559800
H      0.0482209386     2.4328535713    -0.8678855931
H     -2.0761233688     6.9328837317    -0.5901800586
H     -0.3917476497     6.4488556589    -2.3801508736
H     -4.1290688536    -7.2421867468    -0.4710735600
C      0.8116578223    -2.8693922622    -2.3337345025
C     -4.1857004023    -6.2186626298    -0.0640736980
C     -1.9077912052    -5.7018110365    -0.5570697778
C      1.2918266107    -3.9137756692    -1.5212803436
C      1.7272302005    -1.8210252549    -2.8913889489
C      0.3996675702    -4.8323473263    -0.9723589789
C     -0.9799612723    -4.7244721826    -1.2119766168
C     -1.4588240334    -3.6894667880    -2.0379424890
C     -0.5655557163    -2.7769716885    -2.5926752977
C     -5.5606576031    -5.6412396436    -0.3321012111
O      1.3320605972    -0.8806228513    -3.5752625234
O     -1.5415192973    -6.6794715697     0.0821274369
O     -3.2095152292    -5.3686536782    -0.7322329015
O      3.0173958517    -2.0000148957    -2.5507495343
H      2.3621628878    -3.9942047001    -1.3154478687
H     -2.5295580640    -3.6013639543    -2.2362720583
H     -0.9256547522    -1.9629349674    -3.2295703553
H      3.5491987315    -1.2080941061    -2.8551441504
H      0.7607519285    -5.6444399290    -0.3335139146
H     -3.9595523039    -6.2507044856     1.0140710082
H      8.8118279900    -0.9364973071     4.6344995228
C      5.2026285629     0.8521156579    -0.8376326088
C      7.9985388040    -1.6451781652     4.4075946692
C      6.8757558982    -0.0380469617     3.0345090162
C      5.1278915830     1.7895127822     0.2112128134
C      4.6179638962     1.1429912747    -2.1806140463
C      5.6695691203     1.4805412334     1.4556629696
C      6.2996266482     0.2453660096     1.6789134099
C      6.3783348514    -0.6892331590     0.6294612946
C      5.8304467204    -0.3845563158    -0.6139324681
C      8.5198060846    -3.0675588299     4.2680219790
O      4.4530354608     0.2941949216    -3.0612970496
O      6.8670793713     0.7610907778     3.9618935803
O      7.4019489579    -1.2806142875     3.1223125727
O      4.3083487137     2.4397344814    -2.3428734641
H      4.6397790925     2.7531120186     0.0471267832
H      6.8706519602    -1.6510085975     0.7911624567
H      5.8928060212    -1.1063279285    -1.4340543032
H      5.6137900744     2.1986840479     2.2796627651
H      7.2287076455    -1.5837087650     5.1950022603
H     -5.9525589905     4.7812481450     1.7538398718
C     -5.9687357747    -2.0040968094     0.3997817431
C     -5.6901119399     4.0564954126     2.5360602660
C     -5.9589493295     1.6700804185     2.6546453394
C     -5.9210255133    -2.0260359213     1.8069448904
C     -5.9295710083    -3.2603224725    -0.4168785773
C     -5.9378629360    -0.8291003094     2.5196971262
C     -5.9862113227     0.4055229917     1.8518054942
C     -6.0382437686     0.4270575500     0.4448688563
C     -6.0377349512    -0.7696350873    -0.2664145451
C     -4.3002737274     4.3279693355     3.1014763033
O     -6.0808651564    -3.2834176051    -1.6309351940
O     -6.0814078438     1.7167403697     3.8716541454
O     -5.7676897783     2.7617582446     1.8723800219
O     -5.6928333233    -4.3576436611     0.3464690756
H     -5.8685325839    -2.9808873273     2.3355631220
H     -6.0778665127     1.3819070797    -0.0844239536
H     -6.0817877239    -0.7647734746    -1.3599323548
H     -5.9038448636    -0.8347690078     3.6136972039
H     -6.4240405555     4.1040158907     3.3564353073
H     -6.3230121685    -6.3091350077     0.0975218222
H     -5.7442549168    -5.5060519941    -1.4080652663
H     -4.0330349355     3.5940326097     3.8730618095
H     -4.2796730177     5.3452682236     3.5236585610
H      3.8653740286     3.9511893642    -3.6166139207
H      4.3609079396     2.4303243752    -4.4451348838
O      9.5970048638    -3.1800053442     3.3261037000
H      7.6863800288    -3.7484338215     4.0061764731
H      8.9228415913    -3.3801029430     5.2449953007
H      9.2397332311    -2.9497063713     2.4491638542
