91
pet config_44100 from config_44100.mcos (coord_rad bohr -> angstrom)
C      4.9182528579     3.0274671010     0.0598559449
C      4.8808387584     4.0878843280     0.9842452698
C      5.6039339264     3.9803435496     2.1842388719
C      6.3527583048     2.8393945427     2.4547419178
C      5.6615688137     1.8809799093     0.3346747492
C      6.3892491598     1.7775000395     1.5351572825
C      4.0906323176     5.3352660817     0.7311203200
C      7.2035120711     0.5653329503     1.8664402315
O      7.0564680831    -0.4204568437     0.9450720032
C      7.8252384293    -1.6404189350     1.1592622369
C      7.1208900154    -2.6087035811     2.0999077096
H      8.8106992492    -1.3887004741     1.5822592870
H      7.9464490180    -2.0728323869     0.1571276799
O      3.5135102528     5.3401704072    -0.4943763353
O      3.9779265556     6.2527489252     1.5338824586
O      7.9219506578     0.4713583146     2.8532216726
H      4.3583268512     3.1063039444    -0.8755163385
H      5.6852858732     1.0576477928    -0.3837428163
H      5.5697954771     4.8073365343     2.8996479150
H      6.9210591101     2.7542067958     3.3856563653
H     -7.5703584754    -0.5708246077    -2.8082701033
C     -7.3718416184     0.4046159467     3.8825298294
C     -6.8678044844     0.2320376459    -2.5369625132
C     -7.1521903412    -0.5956626281    -0.3040913832
C     -7.4440692971    -0.9360226721     3.4593538986
C     -7.4453625862     0.7758227062     5.3293325656
C     -7.3712591197    -1.2390386770     2.1021694365
C     -7.2262844120    -0.2219758587     1.1445705386
C     -7.1520443552     1.1189639263     1.5690219241
C     -7.2257884584     1.4225070277     2.9258303717
C     -5.4742525771    -0.1639707501    -2.9865048491
O     -7.3651965760     1.9212347919     5.7534036995
O     -7.2731716904    -1.7396086516    -0.7222768970
O     -6.9380092419     0.4809008713    -1.1023160826
O     -7.6137114807    -0.2966301778     6.1436731574
H     -7.5566432850    -1.7355857189     4.1956613991
H     -7.0387111962     1.9174460475     0.8320272803
H     -7.1712564428     2.4611010308     3.2667574820
H     -7.6493565549     0.0399780486     7.0651471063
H     -7.4275666544    -2.2777275312     1.7620677018
H     -7.1792936540     1.1783856016    -3.0010212471
H     -1.1237387979    -6.2164002367    -3.0792976875
C      4.4655636753    -4.4812243306     0.2747181410
C     -0.7327220040    -7.0875443924    -2.5278864178
C      0.5387670762    -5.6033974524    -1.0949520617
C      3.3205453063    -3.8172811615     0.7557899308
C      5.8424043001    -4.1099623690     0.7337433435
C      2.0588015237    -4.1946199058     0.3037715864
C      1.9113330450    -5.2328224043    -0.6307557049
C      3.0557859476    -5.8967976306    -1.1129049508
C      4.3170335346    -5.5183231580    -0.6607780882
C     -1.7929654333    -7.6628627876    -1.5881931897
O      6.8596236222    -4.6988483666     0.3919697012
O     -0.4699330916    -4.9669975671    -0.7843004214
O      0.5282019469    -6.6991394231    -1.8716959593
O      5.8329657892    -3.0459223392     1.5755832458
H      3.4252279442    -3.0095950967     1.4839423619
H      2.9510029765    -6.7037117863    -1.8421105268
H      5.2137163936    -6.0262764945    -1.0290157329
H      1.1624050011    -3.6859842070     0.6717166582
H     -0.4038719327    -7.8584040395    -3.2394123059
H      3.0717514516     6.1804675154    -2.9281184365
C     -2.4594128975     2.0104353014    -2.8701830874
C      2.2324312746     6.3809468506    -2.2472767493
C      0.0168353552     5.4668760005    -2.1587817902
C     -2.9966913413     3.1710073061    -2.2812287236
C     -3.2980662088     0.7971682907    -3.1332984654
C     -2.1805191275     4.2771442763    -2.0589607634
C     -0.8215435474     4.2524045675    -2.4129414061
C     -0.2836876196     3.0900286624    -2.9984970364
C     -1.1005869410     1.9851291693    -3.2242862567
C      2.7128733484     6.5155719636    -0.8147755192
O     -2.8715223264    -0.2399488383    -3.6246638495
O     -0.4280492477     6.5335474744    -1.7552404467
O      1.3293087058     5.2514643089    -2.4298042156
O     -4.5906424639     0.9748275736    -2.7698779745
H     -4.0520728284     3.2012712491    -2.0002669959
H      0.7721163002     3.0595973099    -3.2777938922
H     -0.6941146058     1.0780311830    -3.6824168209
H     -2.5890135147     5.1852943827    -1.6048160104
H      1.7235913601     7.3124317424    -2.5395875436
H     -5.4944557766    -0.4126295599    -4.0608892639
H     -5.0929251262    -1.0330773154    -2.4287825626
H      1.8752288955     6.5894219940    -0.1042673127
H      3.3365994633     7.4205416752    -0.7239166399
H      6.8845421638    -2.1324157520     3.0606423470
H      7.7716586584    -3.4824012628     2.2623065809
O     -2.6421577652    -6.6815182753    -0.9837634084
H     -1.2937607264    -8.2978264325    -0.8274170243
H     -2.4435317349    -8.3183711729    -2.1926143846
H     -2.0522187473    -5.9293529431    -0.7469121668
