91
pet config_31560 from config_31560.mcos (coord_rad bohr -> angstrom)
C     -2.8007642683     3.8330608526    -0.7392981256
C     -3.0353143380     5.0715256849    -1.3658356076
C     -4.1671520975     5.8212944889    -1.0033124408
C     -5.0473722212     5.3456344069    -0.0366187353
C     -3.6844326626     3.3549542830     0.2264459020
C     -4.8168718815     4.1084872988     0.5886764451
C     -2.1115472599     5.6195914787    -2.4093038477
C     -5.7923652096     3.6281782125     1.6183526249
O     -5.4562801812     2.4106909610     2.1158018721
C     -6.3358081245     1.8495530807     3.1337733877
C     -7.5081020323     1.0926965243     2.5245731759
H     -6.7276655984     2.6567297693     3.7727320109
H     -5.6920823100     1.1834308485     3.7234930171
O     -1.0371399958     4.8166639626    -2.6175029209
O     -2.3026348373     6.6687424131    -3.0104014227
O     -6.7784029059     4.2597752599     1.9751077118
H     -1.9214158786     3.2460632433    -1.0162234520
H     -3.5011522876     2.3911171146     0.7080126037
H     -4.3448743203     6.7832175344    -1.4930823315
H     -5.9289317961     5.9274905558     0.2482048341
H      6.0297934969     0.0916083401     3.5875727503
C      6.9740372329    -4.9130717232    -0.9082506595
C      7.0762640095    -0.0075939486     3.2604929993
C      6.7142020795    -2.2186885340     2.4460129350
C      6.5099203667    -5.3638926066     0.3419879012
C      7.0734532762    -5.8293293499    -2.0858109372
C      6.4331259108    -4.4778391848     1.4135908010
C      6.8145151808    -3.1345382377     1.2640720019
C      7.2789227091    -2.6840298906     0.0133683850
C      7.3550459151    -3.5695265455    -1.0583076182
C      7.6440383420     1.3096378040     2.7671792684
O      7.4757000224    -5.4918833141    -3.1915905228
O      6.2897602790    -2.5564197416     3.5435458893
O      7.1506832019    -0.9677015688     2.1662604854
O      6.6682706092    -7.0946301368    -1.8090257464
H      6.2111595711    -6.4073511642     0.4691717462
H      7.5775071111    -1.6407092488    -0.1130812234
H      7.7137972413    -3.2301645146    -2.0349819265
H      6.7688740567    -7.6190280902    -2.6327765880
H      6.0733716420    -4.8170111356     2.3899214617
H      7.6805497423    -0.3703943938     4.1087726849
H     -3.5202403572    -7.4860898951    -1.7495411916
C     -6.4284549195    -2.3090085419     1.4516293036
C     -4.4513913084    -7.8212960692    -1.2634277146
C     -5.2084118709    -5.5225671028    -1.1446061530
C     -6.3809445443    -2.1255853240     0.0561547881
C     -6.8507340210    -1.2092112976     2.3769183432
C     -5.9866687392    -3.1761634125    -0.7682631746
C     -5.6312881296    -4.4217074533    -0.2248231852
C     -5.6766329757    -4.6051613466     1.1707256824
C     -6.0721475888    -3.5545620737     1.9942069468
C     -5.4026027400    -8.4553088332    -2.2789250126
O     -6.9834841087    -1.3458225580     3.5860895356
O     -5.0599682883    -5.3648962917    -2.3578843644
O     -5.0191910987    -6.6904538666    -0.5086337605
O     -7.0720832885    -0.0425447375     1.7205770160
H     -6.6563174047    -1.1607099199    -0.3759875535
H     -5.3990764560    -5.5695408716     1.6028839067
H     -6.1115825325    -3.6854885162     3.0800140097
H     -5.9481730418    -3.0450719066    -1.8540901647
H     -4.2146409089    -8.5435682872    -0.4691815870
H      0.4758014088     7.0836705830    -2.6001586515
C      5.0455639423     3.2408499341     0.9217328542
C      0.9537842612     6.2139901960    -3.0703186808
C      2.8454400219     4.9033986342    -2.3931931070
C      5.4653852057     3.0195954911    -0.4042306875
C      5.7901049503     2.6721164268     2.0900350377
C      4.7423950393     3.5667766178    -1.4609996529
C      3.5930954334     4.3388000960    -1.2248604748
C      3.1715531444     4.5578015118     0.1009337186
C      3.8956427632     4.0120065603     1.1576198715
C     -0.0805370435     5.2469231401    -3.6298897868
O      5.4919958410     2.8814405524     3.2587192623
O      3.1818749796     4.7498351084    -3.5601799457
O      1.7521461829     5.6107198268    -2.0105259710
O      6.8374030413     1.8988408127     1.7056204997
H      6.3576901940     2.4205190916    -0.6004219427
H      2.2781237715     5.1552036679     0.2969707221
H      3.5779273401     4.1782427202     2.1916699242
H      5.0616218293     3.4028397699    -2.4949453518
H      1.6120862798     6.5430719837    -3.8897975900
H      8.6376597117     1.1688235431     2.3189670055
H      7.7077608070     2.0088653655     3.6149813075
H      0.3892093354     4.3190056866    -3.9824216663
H     -0.6136763656     5.7376214589    -4.4595208481
H     -8.0750506038     1.7259150879     1.8291707112
H     -8.1653573421     0.7421943408     3.3359235141
O     -5.3812970253    -7.8409629182    -3.5719290140
H     -6.4261194204    -8.4743525815    -1.8508883982
H     -5.0810925882    -9.5020383559    -2.4179342204
H     -5.3259785938    -6.8720094199    -3.4050569817
