91
pet config_45800 from config_45800.mcos (coord_rad bohr -> angstrom)
C      4.1908480265    -3.8762059548     0.4007834957
C      3.7258193444    -5.0443257260    -0.2314693448
C      4.2518134385    -5.4040822106    -1.4837798379
C      5.2227359351    -4.6150630625    -2.0925090799
C      5.1618271954    -3.0847284000    -0.2098895702
C      5.6890947935    -3.4482860849    -1.4633805882
C      2.6867714948    -5.9251935882     0.3923260381
C      6.7351024008    -2.6268655431    -2.1513774056
O      7.0418545031    -1.5004581934    -1.4586594390
C      8.0671939020    -0.6355917390    -2.0292200344
C      7.4950870444     0.3425496733    -3.0460664283
H      8.8382687133    -1.2490281514    -2.5215879970
H      8.4998335461    -0.1095224584    -1.1677813705
O      2.2663472104    -5.4557735562     1.5913616783
O      2.2626750907    -6.9551761736    -0.1158319897
O      7.2584545357    -2.9346154982    -3.2143831566
H      3.7862416905    -3.5920444046     1.3755612968
H      5.5202534486    -2.1780973420     0.2840526360
H      3.8867485354    -6.3132106435    -1.9706565013
H      5.6355669147    -4.8931329746    -3.0667331372
H     -4.1292862173     2.8744371892     0.3081129317
C     -9.0516910985    -0.6158896309    -3.0953130105
C     -5.1595229745     2.8531806310     0.6876321212
C     -7.2037142644     2.1403582358    -0.3450934457
C     -9.8289459616     0.3125311233    -2.3772774756
C     -9.6700246944    -1.5817480023    -4.0550798452
C     -9.2132232990     1.1950519736    -1.4934621631
C     -7.8215370776     1.1715202536    -1.3060585218
C     -7.0446685252     0.2409286081    -2.0231544573
C     -7.6598428445    -0.6401195521    -2.9084506632
C     -5.2083902733     2.3814142325     2.1343969070
O     -9.0433998364    -2.4152818632    -4.6960658928
O     -7.8300606850     3.0076057831     0.2498787018
O     -5.8669761842     1.9493156186    -0.2110888007
O    -11.0167206580    -1.4449294270    -4.1514348064
H    -10.9127477867     0.3390371873    -2.5144945163
H     -5.9613829111     0.2143798489    -1.8840584926
H     -7.0660597998    -1.3658328492    -3.4728516138
H    -11.3315978974    -2.1139476974    -4.7971436739
H     -9.8074181837     1.9221251227    -0.9314476623
H     -5.6035504642     3.8594087458     0.6272322246
H      2.9744681858     8.6655121897     1.7482365387
C      5.9004107942     3.2259775670    -1.3044855050
C      2.3187155364     7.8327476468     1.4562849420
C      2.8121628282     5.7406555146     0.3380050592
C      4.5462206686     2.8488939877    -1.3900952987
C      6.9939283935     2.3705811743    -1.8671642112
C      3.5614883737     3.6730915017    -0.8518254582
C      3.9010397284     4.8813416722    -0.2211125714
C      5.2550765007     5.2584661524    -0.1339471008
C      6.2389855680     4.4336258840    -0.6722386089
C      1.4572214426     7.4058905114     2.6452586501
O      8.1827664355     2.6568606844    -1.8124728841
O      1.6151757099     5.4767417276     0.2097203430
O      3.2795040946     6.8162888887     0.9929422718
O      6.5152507559     1.2433752352    -2.4515022904
H      4.2720556230     1.9106941775    -1.8780970907
H      5.5291530251     6.1971758164     0.3534247240
H      7.2943673814     4.7168751858    -0.6118134268
H      2.5060733150     3.3903191753    -0.9139520378
H      1.6912134446     8.1367296213     0.6021335729
H      1.8304377907    -5.3580004653     4.1578413646
C     -2.6900222865    -0.3068229285     2.6987456405
C      0.9192178251    -5.5716596446     3.5816089483
C     -1.0602979564    -4.2628418805     3.2332043838
C     -3.5274238660    -1.4389479711     2.6786746310
C     -3.2313359239     1.0771476846     2.5135687015
C     -2.9815927318    -2.7077792481     2.8544154331
C     -1.6016055145    -2.8783250993     3.0523597660
C     -0.7639952923    -1.7462560802     3.0697183068
C     -1.3097401158    -0.4772231456     2.8945900145
C      1.2511470712    -6.2535729300     2.2679422929
O     -2.5452748800     2.0905033029     2.5454212480
O     -1.7532787369    -5.2717993319     3.2456747385
O      0.2886402689    -4.2721585157     3.3858906072
O     -4.5734197344     1.0814241500     2.3111954204
H     -4.6024508548    -1.3189242725     2.5256720375
H      0.3112448807    -1.8665028450     3.2212039396
H     -0.6681846008     0.4093494615     2.9082482767
H     -3.6235024709    -3.5941260942     2.8422818828
H      0.2494880156    -6.2245496354     4.1620363140
H     -6.2427388918     2.2357259519     2.4731638480
H     -4.7062468778     3.1291513475     2.7684272118
H      0.3675817384    -6.3480147211     1.6180826195
H      1.6521680731    -7.2610000636     2.4703274787
H      6.9475154177    -0.1807912567    -3.8411141928
H      8.3214996892     0.9272912404    -3.4799921690
O      0.2538364194     6.7181020325     2.2866748083
H      1.1530406269     8.3255533659     3.1744011552
H      2.0781999855     6.8083858008     3.3442502809
H      0.5007508077     6.1178219013     1.5460808553
