91
pet config_30310 from config_30310.mcos (coord_rad bohr -> angstrom)
C     -2.6912621707    -4.0835780522     0.2954258737
C     -3.2390819789    -4.7522285331    -0.8150924042
C     -2.3910105912    -5.1643236761    -1.8568686029
C     -1.0244607180    -4.9116810018    -1.7932223503
C     -1.3225713671    -3.8281775920     0.3577976381
C     -0.4749894726    -4.2400570888    -0.6878790227
C     -4.7072498071    -5.0289589801    -0.9315706970
C      0.9989651607    -3.9808977131    -0.6637953032
O      1.3776984277    -3.2672308009     0.4309124737
C      2.7988900383    -2.9947340324     0.5742675531
C      3.1367511960    -1.6894365066    -0.1468238469
H      3.3842840602    -3.8320751679     0.1665147041
H      2.9692136178    -2.9015291894     1.6559336018
O     -5.4010805400    -4.5883446341     0.1448298098
O     -5.2286253052    -5.5834533142    -1.8904571708
O      1.7779771984    -4.3668426261    -1.5240744754
H     -3.3460622355    -3.7615769147     1.1091255291
H     -0.9016846241    -3.3055919293     1.2205046329
H     -2.8222362025    -5.6831784292    -2.7180282732
H     -0.3615574190    -5.2306811948    -2.6029373706
H     -5.1853538007     7.1102513848    -0.7565275992
C      0.1310578768     2.8005154982    -0.7514012358
C     -5.4303251323     6.0378494592    -0.6756750277
C     -3.3084697014     5.2948194428    -1.4796162932
C     -0.0110566679     3.4915506035    -1.9693601017
C      1.3124103792     1.9170847578    -0.4824243359
C     -1.1250504630     4.2999872976    -2.1835462936
C     -2.1165670102     4.4318469664    -1.1975184434
C     -1.9724639121     3.7439179923     0.0227651420
C     -0.8562749987     2.9396487775     0.2373529615
C     -6.3282662990     5.8084328343     0.5239134119
O      1.4882205407     1.3344089819     0.5852863232
O     -3.4631280104     5.9441426284    -2.5058073345
O     -4.2101639882     5.2700176279    -0.4685856898
O      2.1560727797     1.8226557109    -1.5248441483
H      0.7537395675     3.3904487492    -2.7435214618
H     -2.7365532782     3.8426798999     0.7974518153
H     -0.7329409087     2.3998042724     1.1814502747
H      2.9322005092     1.2416030189    -1.2735591409
H     -1.2462210839     4.8412033987    -3.1271061467
H     -5.9108220361     5.7102408871    -1.6117729745
H     13.2735734681     0.5135075960    -0.4626308489
C      6.5839726748    -0.2836777264    -0.2031464141
C     12.8155701433     1.3759206858     0.0494302315
C     10.8242728719     0.0603818416     0.4676123223
C      7.2778649785    -1.2709085143     0.5229718861
C      5.1144569575    -0.3836820622    -0.4527158409
C      8.6479283592    -1.1422289976     0.7323266368
C      9.3504643238    -0.0363894206     0.2260397083
C      8.6573108366     0.9511742225    -0.4997373662
C      7.2871627661     0.8222966123    -0.7093170706
C     13.4128512324     1.5671397401     1.4439600437
O      4.4799758757     0.4635513490    -1.0830686022
O     11.4725644158    -0.8282819288     1.0226515653
O     11.3511583119     1.2121533725     0.0222876316
O      4.5669521654    -1.4913623738     0.0733588134
H      6.7403839240    -2.1351851748     0.9204844486
H      9.1964250031     1.8136523678    -0.8986326924
H      6.7386249202     1.5827514184    -1.2735040464
H      9.1968754248    -1.9036924169     1.2946378797
H     12.9649971205     2.2846860900    -0.5508397946
H     -6.9876141338    -4.6535641419     2.2496113817
C     -6.8266762713     2.2116051380     1.3768099073
C     -7.4387339266    -4.1897010974     1.3611702900
C     -7.9827647635    -1.9063606249     0.8539114028
C     -7.7594311078     1.8485510845     0.3865368318
C     -6.3652021698     3.6267936928     1.5504494088
C     -8.1373113084     0.5152275547     0.2464781236
C     -7.5834627156    -0.4792715647     1.0691313122
C     -6.6536253347    -0.1153659690     2.0617340313
C     -6.2918728500     1.2202329371     2.2155739737
C     -6.8472162071    -4.7594964591     0.0846034969
O     -5.6777763185     4.0063020052     2.4886793728
O     -8.9256162877    -2.2596666593     0.1578749734
O     -7.1637371413    -2.7664535068     1.5103413637
O     -6.7849392465     4.4243469151     0.5349732523
H     -8.1819145699     2.6127550921    -0.2702396631
H     -6.2185725111    -0.8815839728     2.7077347790
H     -5.5743375621     1.5153188343     2.9874920795
H     -8.8651738786     0.2224607494    -0.5167522178
H     -8.5262231257    -4.3619736727     1.3567177012
H     -7.2272226117     6.4358634940     0.4275342569
H     -5.8125494041     6.0317063006     1.4693312102
H     -7.2353690295    -4.2504654247    -0.8107900928
H     -7.0904694337    -5.8332000948     0.0177991191
H      2.5787252708    -0.8353910200     0.2704146866
H      2.9463968587    -1.7654258419    -1.2287594489
O     13.7365596171     0.3478248038     2.1207256608
H     12.7286107324     2.2007205619     2.0452330538
H     14.3580514905     2.1234930125     1.3203753981
H     12.9966788236    -0.2711021046     1.9232754439
