91
pet config_64920 from config_64920.mcos (coord_rad bohr -> angstrom)
C      1.4739097350     3.5724589779    -0.7921434760
C      1.1840935812     4.7808852767    -0.1312048791
C      2.1009356666     5.2887624066     0.8047824582
C      3.2828099274     4.6062492575     1.0742932203
C      2.6598172566     2.8908764737    -0.5252670967
C      3.5764968527     3.4016358171     0.4131792533
C     -0.0758085641     5.5464639187    -0.3944677406
C      4.8639044619     2.7034126210     0.7249012557
O      5.0031104069     1.5480752125     0.0217207957
C      6.2169882234     0.7779563729     0.2490941197
C      7.2994946890     1.2439071034    -0.7316688752
H      5.9383109311    -0.2666216595     0.0495346779
H      6.5448384880     0.8949041252     1.2921830619
O     -0.9108607930     4.8880763309    -1.2382430388
O     -0.3251090346     6.6419982736     0.0913356320
O      5.6928139094     3.1178269915     1.5230316529
H      0.7643849796     3.1724427116    -1.5209376519
H      2.8832496757     1.9559432052    -1.0452631410
H      1.8719051206     6.2283088490     1.3161869921
H      3.9984616868     4.9992359939     1.8024376496
H     -8.2009664458    -5.4119448021    -0.4318230238
C    -13.9376657686    -1.8344440652    -0.0764642295
C     -8.0107981354    -4.3276187064    -0.4674890723
C    -10.3056050477    -4.1376318157     0.2064654004
C    -12.7907548720    -1.4164254732    -0.7762066504
C    -15.2224941000    -1.0718104285    -0.1393358640
C    -11.6102620166    -2.1526834548    -0.6942245985
C    -11.5558854248    -3.3210132383     0.0888624364
C    -12.7030267595    -3.7353080771     0.7871066282
C    -13.8816113868    -3.0009123277     0.7050576337
C     -7.1625330087    -3.9378559119     0.7353837102
O    -16.2528773695    -1.4060808007     0.4305071068
O    -10.2197226150    -5.1673277683     0.8626881809
O     -9.2775087168    -3.6069989712    -0.5027968880
O    -15.1370912569     0.0482608132    -0.9010380417
H    -12.8295945389    -0.5098805696    -1.3859484957
H    -12.6540294087    -4.6438220258     1.3945665386
H    -14.7768646817    -3.3205451677     1.2465154425
H    -16.0190548575     0.4791819027    -0.8847919899
H    -10.7210641353    -1.8253317833    -1.2387082054
H     -7.5132533321    -4.0645853278    -1.4103552473
H     14.8039358872    -5.5737353345     0.2359415070
C     10.5372834888    -0.3437276407     0.2059573336
C     14.7972322350    -5.0982661424    -0.7588553219
C     13.8578374965    -3.0884152120     0.2161143114
C     11.6192537135    -0.1654567121     1.0845224982
C      9.4089505302     0.6407037697     0.2428123076
C     12.6861883248    -1.0581281604     1.0802930204
C     12.6938293299    -2.1495091573     0.1949970706
C     11.6112460262    -2.3318796277    -0.6857814203
C     10.5420294899    -1.4384498866    -0.6792449536
C     16.2054954311    -4.6671659513    -1.1700016711
O      9.3678703234     1.6082551548     0.9896146579
O     14.7734486060    -3.0059272867     1.0367688261
O     13.7976718799    -4.0155719401    -0.7540718634
O      8.4375554827     0.3394614406    -0.6590124197
H     11.6098518564     0.6865478187     1.7706232123
H     11.6128685547    -3.1807369283    -1.3744294216
H      9.7017740226    -1.5846456922    -1.3625334950
H     13.5296032232    -0.9212123654     1.7633234244
H     14.3872172851    -5.7982968648    -1.5007481931
H     -4.1414435149     5.9132095779    -0.8412390120
C     -5.4356510944    -0.7002821953     0.0856252534
C     -3.2513198481     5.3235303120    -0.5648249061
C     -4.5897080600     3.5245945227     0.2432200678
C     -6.2056739097     0.1588263241     0.8932849182
C     -5.7117092730    -2.1701522986     0.0116593716
C     -5.9140804775     1.5198736399     0.9326946588
C     -4.8616468929     2.0531142844     0.1707731648
C     -4.0929092467     1.1947820942    -0.6383661682
C     -4.3814630433    -0.1670204823    -0.6740536490
C     -2.1562434132     5.5608021303    -1.5874383933
O     -5.0262290768    -2.9647925928    -0.6187441830
O     -5.2043822479     4.3027455921     0.9613627049
O     -3.5851871052     3.9047614053    -0.5819899269
O     -6.8104404011    -2.5234763534     0.7258831844
H     -7.0284564781    -0.2449283417     1.4879517069
H     -3.2716959138     1.5985810061    -1.2352318297
H     -3.7883751985    -0.8434639535    -1.2973417385
H     -6.5036204836     2.1961457208     1.5596071330
H     -2.9366871869     5.6113739673     0.4499991296
H     -6.2461306404    -4.5488859143     0.7366026345
H     -7.7112986332    -4.0827149267     1.6755055171
H     -1.9796330402     6.6439975811    -1.6734940620
H     -2.4333096161     5.1453675945    -2.5665821827
H      7.6237345019     2.2710309223    -0.5100726987
H      6.9386955870     1.1709463149    -1.7676207434
O     17.0169184735    -4.1931020895    -0.0898734071
H     16.1295224753    -3.9181525102    -1.9851211707
H     16.7119784407    -5.5569047879    -1.5825487783
H     16.4196249691    -3.6483456515     0.4724219087
