91
pet config_72450 from config_72450.mcos (coord_rad bohr -> angstrom)
C     -4.3993645134    -3.7016018886    -0.0671112033
C     -4.0372199637    -4.7836595574     0.7566346955
C     -4.6618545091    -4.9357908982     2.0060816616
C     -5.6297259985    -4.0280967514     2.4246729735
C     -5.3684559725    -2.7920716886     0.3524344015
C     -5.9940636195    -2.9477207148     1.6034288124
C     -3.0044321132    -5.7866669508     0.3423962829
C     -7.0441739555    -1.9968184533     2.0903882090
O     -7.3157843144    -1.0227645661     1.1889568053
C     -8.3274888794    -0.0518964724     1.5872882774
C     -8.4956319074     0.9416606586     0.4535649085
H     -8.0153293896     0.4384325327     2.5221549174
H     -9.2846570370    -0.5716089662     1.7616469865
O     -2.5164814737    -5.5421208481    -0.8974265711
O     -2.6408035351    -6.7267879096     1.0373044022
O     -7.6021554753    -2.0855152798     3.1765627202
H     -3.9161763624    -3.5773601615    -1.0395963288
H     -5.6468562238    -1.9530289525    -0.2902935981
H     -4.3758552107    -5.7785299364     2.6424139496
H     -6.1191753195    -4.1437868831     3.3962858190
H      7.1878747021     2.6725036125    -2.4804584195
C      8.5959941901    -0.2183664862     3.5077369602
C      6.6680456482     1.7131615316    -2.3239181638
C      8.1639732522     1.0976360677    -0.5734087925
C      7.3113853498     0.0200474577     2.9853767397
C      8.8030059314    -0.6746590990     4.9166894892
C      7.1567389792     0.4446753688     1.6669066815
C      8.2846060581     0.6393215072     0.8483351914
C      9.5664599773     0.4011012967     1.3725826301
C      9.7207731568    -0.0241161293     2.6881002497
C      5.1846138616     1.9071277777    -2.5403053940
O      9.8975369786    -0.9008822493     5.4156679177
O      9.1170463677     1.2973562003    -1.3152138346
O      6.8747176657     1.2692902767    -0.9512583253
O      7.6413283374    -0.8168159443     5.6040897038
H      6.4334080654    -0.1294878664     3.6193041578
H     10.4385978904     0.5547188974     0.7302459188
H     10.7165756114    -0.2116642091     3.1005037596
H      7.8736376502    -1.1172355756     6.5094284204
H      6.1576562145     0.6280393583     1.2635926068
H      7.0852692875     0.9646877197    -3.0166423894
H      0.3006977019     5.9837449404    -0.5269274052
C     -5.9039574101     3.6121312713     0.6620669024
C     -0.2938564315     6.0062430777    -1.4552606072
C     -2.3271536364     5.8743180655    -0.1436592210
C     -5.6103662982     4.7809507501     1.3846514076
C     -7.1590470853     2.8609402272     0.9853878450
C     -4.4524424609     5.5038216880     1.1163403703
C     -3.5621982192     5.0725104420     0.1181558965
C     -3.8527340005     3.9017537118    -0.6072118684
C     -5.0119222471     3.1774963230    -0.3364139640
C     -0.3402364229     7.4171968416    -2.0424217879
O     -7.9715466715     3.2180181557     1.8282206689
O     -2.0112431683     6.8602735305     0.5247631122
O     -1.6127454561     5.4086520983    -1.1817455731
O     -7.2956653625     1.7398596385     0.2325911998
H     -6.3069678457     5.1137470875     2.1597452195
H     -3.1623073072     3.5623209755    -1.3836641998
H     -5.2340103246     2.2678862039    -0.9000592499
H     -4.2217306882     6.4142034694     1.6772516008
H      0.1372504788     5.3086724739    -2.1874423567
H     -1.9783673291    -5.9193683561    -3.4200433659
C      2.6399423986    -0.7984660225    -2.7182221849
C     -1.0975451923    -6.0463089504    -2.7750145860
C      0.9046671058    -4.7417616210    -2.5713823792
C      3.4248202395    -1.9172060858    -2.3797854037
C      3.2169186496     0.5829982520    -2.7762188380
C      2.8453204896    -3.1826425202    -2.3378513025
C      1.4831321161    -3.3617712081    -2.6295736619
C      0.6982853643    -2.2419362521    -2.9663164110
C      1.2776654123    -0.9763925828    -3.0095631377
C     -1.5018131340    -6.4726480244    -1.3765759790
O      2.5693931893     1.5888566650    -3.0368193329
O      1.5629084409    -5.7506404634    -2.3536983285
O     -0.4351620980    -4.7478642036    -2.7897468013
O      4.5448755741     0.5983381012    -2.5100375466
H      4.4852465288    -1.7899290519    -2.1496457744
H     -0.3624267069    -2.3692938110    -3.1950984326
H      0.6777531357    -0.0993714936    -3.2719279154
H      3.4463127760    -4.0593907825    -2.0772834112
H     -0.4260867711    -6.8089413025    -3.1984311367
H      5.0181860283     2.3737177497    -3.5248778118
H      4.7400948172     2.5486559018    -1.7623815015
H     -0.6476180798    -6.4708208976    -0.6821858215
H     -1.9264870931    -7.4899144126    -1.4142458121
H     -9.3434008211     1.6047092168     0.6846797762
H     -8.6692956009     0.4263356463    -0.5015467431
O     -0.3925368507     8.4622886492    -1.0651496071
H     -1.1860531077     7.4823044966    -2.7576887570
H      0.5916768150     7.5629405390    -2.6157223531
H     -1.0008789277     8.1388132757    -0.3616094254
