91
pet config_70220 from config_70220.mcos (coord_rad bohr -> angstrom)
C      5.5654723949    -2.1690675727     0.8804969704
C      6.4103713701    -3.0935957348     0.2389327506
C      7.6846124210    -2.6815684378    -0.1862825572
C      8.1080902908    -1.3734965370     0.0259928142
C      5.9891019750    -0.8580892013     1.0911636212
C      7.2671727518    -0.4479655047     0.6670507641
C      5.9977254245    -4.5133087701    -0.0034876834
C      7.7618896442     0.9497497134     0.8764140526
O      6.8279538915     1.7451849717     1.4577158889
C      7.2152584133     3.1249889965     1.7251411197
C      6.9976131691     4.0284601856     0.5192513627
H      8.2787806029     3.1632136245     2.0093829826
H      6.5891021222     3.4317163247     2.5736115968
O      4.7488413489    -4.7727751645     0.4528460414
O      6.7039477926    -5.3514284105    -0.5490002797
O      8.8815966183     1.3335129295     0.5639863677
H      4.5732997186    -2.4846358251     1.2132278432
H      5.3301843163    -0.1424621963     1.5893309755
H      8.3367795305    -3.4048200888    -0.6846976793
H      9.1001970280    -1.0494298745    -0.3019388191
H     -6.7269416415    -3.2219082496    -2.7517509602
C     -7.9569141482     0.2835551399     3.1014413965
C     -6.5842166433    -2.1328912486    -2.7107833134
C     -7.2617032693    -0.5125744586    -1.0770905538
C     -7.5931697548    -1.0118443563     2.6897905568
C     -8.2085194899     0.6136066856     4.5381815467
C     -7.3654472332    -1.2827854837     1.3417543895
C     -7.5005223776    -0.2634477411     0.3805716581
C     -7.8646996082     1.0290181241     0.7952671092
C     -8.0903109282     1.3004052027     2.1408219304
C     -5.1883639078    -1.7477444107    -3.1629861556
O     -8.5550487008     1.7152977564     4.9434777064
O     -7.4329642581     0.3266167896    -1.9514638225
O     -6.8339910335    -1.7777750080    -1.3189701085
O     -8.0108343594    -0.4428492006     5.3670264163
H     -7.4895860752    -1.8065580225     3.4333137430
H     -7.9679817995     1.8171338992     0.0435871355
H     -8.3733413893     2.3054803431     2.4672129000
H     -8.1981964513    -0.1352778522     6.2803576598
H     -7.0824995718    -2.2898788113     1.0253876460
H     -7.3191461775    -1.6310221132    -3.3587583374
H     -2.3245309870     3.2484798844    -3.0912023103
C      3.4164132293     5.0317205058     0.2762281883
C     -2.3744469678     4.1253848471    -2.4301509071
C     -0.6950502099     5.1370238279    -1.0058613956
C      2.5107482970     5.9526494999     0.8295706914
C      4.8338104720     5.0349396963     0.7609022990
C      1.1854769147     5.9788345854     0.4073118206
C      0.7368468840     5.0823942942    -0.5776220999
C      1.6410424788     4.1575427030    -1.1329383071
C      2.9682086362     4.1320023667    -0.7092457548
C     -2.9646894279     5.3161787886    -3.1861158892
O      5.2612296879     5.7952868611     1.6195879125
O     -1.5244886294     5.8855253839    -0.4858218596
O     -0.9708817922     4.2927095770    -2.0137712352
O      5.5936213004     4.1018765087     0.1332632255
H      2.8647020913     6.6487410681     1.5956803710
H      1.2953830718     3.4574181436    -1.8978605868
H      3.6676532443     3.4115950495    -1.1407339710
H      0.4784469602     6.6952769210     0.8356735200
H     -2.9778433892     3.8844731549    -1.5392915938
H      2.9272580116    -5.9060328425     1.9515738367
C     -2.0159979621    -3.1852294098    -1.8597798797
C      2.9152864460    -6.2645838241     0.9096076696
C      0.6679990776    -5.5703553671     0.5257205296
C     -2.5067200088    -4.0025990958    -0.8236506386
C     -2.9274342876    -2.3466176513    -2.7025212259
C     -1.6227960139    -4.7632563838    -0.0626430247
C     -0.2420956324    -4.7308937749    -0.3177549496
C      0.2487286316    -3.9148279986    -1.3547476212
C     -0.6349033935    -3.1505012380    -2.1125431970
C      4.2739346916    -6.1369933186     0.2596348793
O     -2.5440528212    -1.5762419163    -3.5735449495
O      0.2920586028    -6.2689952353     1.4582076366
O      1.9628769690    -5.4756398750     0.1389516316
O     -4.2330204625    -2.5383541564    -2.3971999032
H     -3.5792197774    -4.0367966548    -0.6180180392
H      1.3210938717    -3.8819143087    -1.5613418960
H     -0.2644530078    -2.5103309616    -2.9192790150
H     -1.9927338931    -5.4000131600     0.7470181914
H      2.6063642351    -7.3225347815     0.9006710111
H     -4.9849152337    -0.6774378944    -3.0052080071
H     -5.0768060491    -1.9758670592    -4.2362650631
H      4.2307609573    -6.3595932788    -0.8187859601
H      4.9744940439    -6.8391012083     0.7404120872
H      7.5127710426     3.6405192632    -0.3695548795
H      7.3691781373     5.0370646963     0.7597578462
O     -3.5401669061     6.3225844336    -2.3459279085
H     -3.7789163028     4.9276545434    -3.8221299136
H     -2.1884904680     5.7376918803    -3.8577125977
H     -2.9310788514     6.4075605669    -1.5768296032
