91
pet config_4940 from config_4940.mcos (coord_rad bohr -> angstrom)
C      2.1514988633     4.1464871915    -1.5631593853
C      3.1865780339     4.3289995650    -0.6316959069
C      2.9426139203     4.0721751466     0.7308940317
C      1.6811689523     3.6479303332     1.1413108948
C      0.8969048388     3.6993623019    -1.1557974047
C      0.6508338116     3.4492862207     0.2078845301
C      4.5220563506     4.8044393881    -1.1176024580
C     -0.6905318137     2.9949099808     0.6945178136
O     -1.5003489333     2.5994336239    -0.3200620862
C     -2.8373371044     2.1742242831     0.0645715523
C     -3.4846252364     1.6688245788    -1.2256653981
H     -3.3914614043     3.0335780434     0.4760880322
H     -2.7717787800     1.3856802875     0.8296957896
O      5.4831448201     4.6894272384    -0.1690754400
O      4.7283813404     5.2380697327    -2.2434218450
O     -1.0262234691     2.9742766972     1.8708010154
H      2.3498206282     4.3571307402    -2.6187299780
H      0.1014390955     3.5495652170    -1.8899133998
H      3.7404378817     4.2129079059     1.4639827956
H      1.4764393384     3.4590474320     2.1998548619
H      5.4421559361    -6.7006329099    -0.8426598618
C     -0.1675754401    -2.8604645971    -0.8000412252
C      5.6393791822    -5.6205528821    -0.7501799848
C      3.2925286805    -5.3766461569    -0.2827576544
C     -0.1751981508    -3.9062182233     0.1420048468
C     -1.3489319823    -1.9544926161    -0.9776008428
C      0.9457285909    -4.7211879112     0.2843762260
C      2.0950611861    -4.5012309906    -0.4922324379
C      2.1022376409    -3.4551664874    -1.4351500569
C      0.9751772378    -2.6522689524    -1.5892344698
C      6.3275999867    -5.3615166664     0.5875095957
O     -1.4176807409    -1.1005255169    -1.8583123190
O      3.2838077218    -6.4157606695     0.3642322071
O      4.3968814477    -4.8731565404    -0.8878195575
O     -2.3206614770    -2.1635417274    -0.0722598836
H     -1.0610863202    -4.0743324910     0.7595987338
H      2.9920340887    -3.2785275224    -2.0441429412
H      0.9657518707    -1.8408785988    -2.3236751106
H     -3.0740131260    -1.5296212177    -0.2440061431
H      0.9482938307    -5.5398459330     1.0107887016
H      6.2575103637    -5.2766556990    -1.5896031192
H    -13.3726504799    -1.3847196635    -0.1988151194
C     -6.8192994844     0.2136714317    -0.3908034696
C    -12.9458462699    -1.4204190640     0.8171239920
C    -11.0934200052    -0.0426583384     0.0815945506
C     -7.6498796570     1.2827010552    -0.7800116931
C     -5.3342579407     0.2811445710    -0.5430512393
C     -9.0291845056     1.1816033621    -0.6221086083
C     -9.6063337927     0.0250252058    -0.0726563428
C     -8.7768541816    -1.0434740453     0.3182865042
C     -7.3979573615    -0.9438254334     0.1561516350
C    -13.7130102781    -0.5004832325     1.7676327486
O     -4.5912157644    -0.6624009672    -0.2753939504
O    -11.8519648201     0.8331390115    -0.3375458160
O    -11.5004668233    -1.1471604621     0.7273135337
O     -4.9139281366     1.4742128020    -1.0010441542
H     -7.2104242263     2.1878740055    -1.2056782144
H     -9.2170222051    -1.9476354619     0.7453205222
H     -6.7447306427    -1.7696971135     0.4539071307
H     -9.6835285966     2.0050616314    -0.9241199123
H    -12.9703686194    -2.4532965647     1.1926797665
H      7.4775848497     4.8671501878     1.5140615559
C      7.5089669955    -1.8295911730     0.5944835013
C      7.7907381732     4.5917376453     0.4963533328
C      7.4288732713     2.3958541215     1.4295173020
C      6.7750195617    -1.3257051481     1.6850619193
C      7.4974943931    -3.2871987184     0.2499223243
C      6.7861356279     0.0402283002     1.9546071702
C      7.4989612255     0.9285726558     1.1331439185
C      8.2372834907     0.4241151817     0.0455893221
C      8.2490973427    -0.9457170514    -0.2076142833
C      6.8256742371     5.1073523747    -0.5527088265
O      8.2945650865    -3.8248454276    -0.5075437476
O      6.9896229470     2.8586006901     2.4733200459
O      7.8889108656     3.1411158969     0.3922424727
O      6.4796987079    -3.9394730036     0.8643753947
H      6.1986335625    -2.0072489389     2.3151625115
H      8.7959108725     1.1084721588    -0.5974808728
H      8.8242251695    -1.3501490476    -1.0465097002
H      6.2255927952     0.4430542352     2.8039474403
H      8.7954323836     4.9908938852     0.2900863311
H      7.3144308819    -5.8517538944     0.5779007624
H      5.7270531569    -5.7384121547     1.4255471179
H      7.0618979911     4.7087079821    -1.5519410818
H      6.8677854976     6.2092236383    -0.5871453378
H     -3.0189343032     0.7333105903    -1.5725805378
H     -3.4286732466     2.4361555797    -2.0100485930
O    -14.1848233507     0.7099168497     1.1658468811
H    -13.0836515981    -0.2972957699     2.6585718165
H    -14.6041785655    -1.0544761687     2.1097506593
H    -13.4557337926     1.0177765696     0.5800872410
