91
pet config_79060 from config_79060.mcos (coord_rad bohr -> angstrom)
C      3.1653971172    -3.1515953170     0.5665851341
C      2.9642457671    -4.4535857877     1.0623889382
C      3.6966571245    -5.5186055905     0.5111181829
C      4.6106759460    -5.2902878433    -0.5125985596
C      4.0827407592    -2.9222768603    -0.4571292488
C      4.8136563440    -3.9913430000    -1.0087140133
C      1.9846761865    -4.7421323589     2.1578657004
C      5.8077713444    -3.7870640639    -2.1099406461
O      5.9147718575    -2.4828353894    -2.4703593117
C      6.8423599938    -2.1720301850    -3.5509678893
C      8.2680406978    -1.9845227258    -3.0502554790
H      6.4508922107    -1.2485383760    -3.9979051774
H      6.8317963716    -2.9843726522    -4.2948927361
O      1.3267897560    -3.6268202894     2.5654488655
O      1.7988594217    -5.8538966074     2.6351074323
O      6.4477373042    -4.6909648528    -2.6314010933
H      2.5979186117    -2.3192074615     0.9904033548
H      4.2373626462    -1.9095045542    -0.8376814119
H      3.5370276360    -6.5288192335     0.8993913574
H      5.1814300557    -6.1178090230    -0.9441303701
H     -7.3115384790     3.9357186833    -2.7370120305
C    -12.5691239720     1.2553664497     0.5696241374
C     -6.9910215112     3.1418938034    -2.0437923959
C     -9.3282950702     2.6173789646    -1.9237786037
C    -11.2890258373     1.4335602779     1.1259182054
C    -13.7286845531     0.7888812668     1.3907780824
C    -10.2316045964     1.8712501474     0.3304458729
C    -10.4367849681     2.1422308148    -1.0353991304
C    -11.7165667901     1.9633746452    -1.5879037064
C    -12.7714751265     1.5238804234    -0.7947629407
C     -6.3331368698     2.0272541822    -2.8455892711
O    -14.8628172452     0.6319060537     0.9581107804
O     -9.4780465906     2.9281655155    -3.0982420805
O     -8.1367323426     2.6683311920    -1.2764741215
O    -13.3993735997     0.5509867735     2.6858057734
H    -11.1271652339     1.2271078754     2.1871861608
H    -11.8693838924     2.1759455573    -2.6500878386
H    -13.7689696591     1.3830271457    -1.2213101923
H    -14.2154353277     0.2542449521     3.1439569025
H     -9.2384691939     2.0084067088     0.7654133352
H     -6.3038511974     3.5543552464    -1.2930881266
H      9.2432374110     4.4141387927     4.6068914450
C      8.6693891385     1.4112589896    -1.5681774162
C      9.1905381228     5.0690983211     3.7255013872
C      9.0323186399     4.5449328602     1.3648283843
C      8.7414841853     2.7594598356    -1.9576025742
C      8.5454374243     0.3605072433    -2.6286500350
C      8.8562866256     3.7637289367    -1.0016775914
C      8.9027550102     3.4401824252     0.3651221805
C      8.8317711198     2.0905854970     0.7584828355
C      8.7149262236     1.0854768176    -0.1995144657
C      8.1056461446     6.1280397441     3.9257484307
O      8.5898500452     0.5918002323    -3.8298133307
O      9.2085450390     5.7224013117     1.0466471961
O      8.9273859698     4.1154694945     2.6333631332
O      8.3793603630    -0.8801154191    -2.1049124012
H      8.7060279409     3.0062467365    -3.0228092054
H      8.8713415273     1.8349990423     1.8205246670
H      8.6612474652     0.0382067101     0.1083317709
H      8.9121113003     4.8143009404    -1.3014645518
H     10.1733770913     5.5378943775     3.5522629418
H     -1.6856486457    -4.3763764479     3.9796121507
C     -4.1127932981    -0.0122725125    -0.6553784159
C     -1.0106682345    -4.2029101059     3.1246561520
C     -2.7573366219    -3.3107579538     1.7687972248
C     -4.9204938910    -1.1514748375    -0.4729866877
C     -4.5585067612     1.1444607338    -1.4953014769
C     -4.4645403117    -2.2062398552     0.3136622182
C     -3.2054365537    -2.1506507390     0.9333367627
C     -2.3988845931    -1.0106824553     0.7532990378
C     -2.8543283117     0.0434706470    -0.0341620158
C      0.3553905789    -3.7908667685     3.6398291135
O     -3.8734664348     2.1350812099    -1.7148146092
O     -3.4186813018    -4.3254190378     1.9482905450
O     -1.5312431362    -3.1129353658     2.3091009050
O     -5.8093351878     0.9682252782    -1.9919246855
H     -5.9017277137    -1.2055089928    -0.9503937133
H     -1.4177357512    -0.9560243639     1.2307942524
H     -2.2343443904     0.9331001872    -0.1821315286
H     -5.0828979210    -3.0973812130     0.4599049351
H     -0.9627322320    -5.1207442478     2.5188141296
H     -5.5162698365     2.4578127991    -3.4460296075
H     -7.0568551793     1.5256141207    -3.5016375370
H      0.7125715084    -4.5531066226     4.3492392641
H      0.3130493935    -2.8087230164     4.1313095372
H      8.9262793628    -1.8014356908    -3.9142896863
H      8.6157537228    -2.8645875442    -2.4931390260
O      8.2745082567     7.3046906125     3.1277675975
H      8.1531262126     6.4489451219     4.9807522174
H      7.1121711067     5.6613922590     3.7631563744
H      8.5706659472     6.9862720887     2.2442206761
