91
pet config_16910 from config_16910.mcos (coord_rad bohr -> angstrom)
C      5.2120804465     1.2895390205    -0.6793839836
C      6.1954237962     0.8479722773     0.2257342519
C      6.4178749630     1.5735405362     1.4083056795
C      5.6623427106     2.7072622533     1.6913509222
C      4.4656488149     2.4334050849    -0.4030818879
C      4.6778711117     3.1476876834     0.7906321633
C      6.9929456288    -0.3959232083    -0.0184132249
C      3.8647669403     4.3543283729     1.1467623979
O      3.0435352756     4.7369361017     0.1393443077
C      2.1695349508     5.8678682940     0.4246332102
C      1.5259339562     6.3117919714    -0.8752743316
H      2.7638437926     6.7010643418     0.8347078751
H      1.4214459144     5.5627277457     1.1724977442
O      6.5287847989    -1.0969213380    -1.0838437057
O      7.9409533099    -0.7509785876     0.6696594191
O      3.9263376227     4.9311927383     2.2248059625
H      5.0350038002     0.7284133081    -1.6003819504
H      3.7032121499     2.7744889261    -1.1080481105
H      7.1853852077     1.2274466042     2.1069024008
H      5.8213679252     3.2661428378     2.6183188389
H     -5.0727948574    -3.3982979954    -0.7120129313
C     -3.7135305866     0.0093704230     5.0393443326
C     -4.0012636402    -3.3222299744    -0.4636603095
C     -4.3027415894    -1.4979358458     1.0486272224
C     -4.3939352193     0.7772873205     4.0756497965
C     -3.4972952052     0.5099136910     6.4323534762
C     -4.5751269141     0.2742310463     2.7899288242
C     -4.0866711171    -0.9954694432     2.4408088499
C     -3.4063555572    -1.7638983378     3.4052983086
C     -3.2241019299    -1.2599542986     4.6900475490
C     -3.3882413352    -4.7098637772    -0.4571750625
O     -2.9222763218    -0.1198624303     7.3102069224
O     -4.8347133662    -0.8304088496     0.1633792197
O     -3.8538692474    -2.7558428375     0.8741438553
O     -4.0081397710     1.7504347194     6.6347449808
H     -4.7787639522     1.7658371203     4.3379222337
H     -3.0221525120    -2.7523500753     3.1427895186
H     -2.6963095655    -1.8474793919     5.4476198437
H     -3.8229416211     1.9934084090     7.5676978499
H     -5.1019279252     0.8629468858     2.0329059288
H     -3.5126989342    -2.6593509023    -1.1932955239
H     -6.3018124014     0.6686613705    -4.7928350684
C     -1.3916496695     4.1678791199    -1.7537088137
C     -5.8237577102     0.0593855244    -4.0064323796
C     -3.8217811437     1.3654064312    -3.9527925753
C     -0.9338523090     3.6130976342    -2.9643814101
C     -0.5874945465     5.1826496330    -1.0013547814
C     -1.7302980515     2.7045046971    -3.6567852712
C     -2.9815270084     2.3145751484    -3.1518570046
C     -3.4313066507     2.8558256940    -1.9327291375
C     -2.6435251674     3.7790722210    -1.2491258184
C     -6.8664650562    -0.4713046253    -3.0328288255
O     -1.0223484736     5.8489047682    -0.0708427447
O     -3.5723864993     1.0467736231    -5.1091925845
O     -4.8933731188     0.9117939410    -3.2640045547
O      0.6793958456     5.2881595823    -1.4762314714
H      0.0394728699     3.9078169946    -3.3639861932
H     -4.4034319414     2.5588572472    -1.5317265522
H     -2.9930341352     4.2191157958    -0.3099648651
H     -1.3929493686     2.2836709496    -4.6091884127
H     -5.2635285597    -0.7650502191    -4.4759145829
H      6.7556459743    -3.2918356731     0.5455740182
C      0.2938352427    -4.4574352518    -0.9545018492
C      6.6379115308    -3.4947129414    -0.5293307819
C      4.4928335430    -4.3981205465     0.0122409032
C      0.7561700799    -4.9747537436     0.2706337957
C     -1.1615170111    -4.4450929419    -1.3040143171
C      2.1192726826    -4.9652152884     0.5563173867
C      3.0402533718    -4.4218846029    -0.3541222129
C      2.5775868992    -3.9035105753    -1.5787719176
C      1.2171769268    -3.9341609898    -1.8743731820
C      7.1851624715    -2.3635625302    -1.3818954456
O     -1.5948564374    -4.2352683076    -2.4293732972
O      4.9672561991    -4.9775300576     0.9806173792
O      5.2224496235    -3.6417421090    -0.8422725298
O     -1.9499277105    -4.6828882529    -0.2243928707
H      0.0452261495    -5.3854348199     0.9916180511
H      3.2867717426    -3.4798321632    -2.2938354882
H      0.8475611245    -3.5420239418    -2.8269939144
H      2.4915646054    -5.3728165496     1.5014461260
H      7.1665901279    -4.4309068878    -0.7765485674
H     -3.5992614182    -5.1914338459    -1.4243773245
H     -3.7930636638    -5.3189688198     0.3631953381
H      6.9867814330    -2.5350285167    -2.4490414483
H      8.2688843221    -2.2757805729    -1.2083981857
H      2.2879475305     6.5219229651    -1.6393416778
H      0.9287584001     7.2164617739    -0.6809885685
O     -6.3752955149    -1.4957686491    -2.1640437283
H     -7.6701682147    -0.9276706675    -3.6355195260
H     -7.3076631293     0.3694241826    -2.4624570480
H     -5.8083024759    -1.0994097860    -1.4660235833
