91
pet config_63840 from config_63840.mcos (coord_rad bohr -> angstrom)
C      3.1515830188    -3.5486079615     0.6502037754
C      3.4955853729    -4.7323129160     1.3298343784
C      4.6898870324    -5.3933574220     0.9963022250
C      5.5246057037    -4.8839073445     0.0067131169
C      3.9886469734    -3.0375932827    -0.3398734193
C      5.1841835588    -3.7019290838    -0.6727690598
C      2.6233051446    -5.3148477092     2.3987171541
C      6.1123099805    -3.1825229123    -1.7270416195
O      5.6631145210    -2.0284611196    -2.2835028860
C      6.4842456352    -1.4408050032    -3.3346814648
C      7.5712299694    -0.5387881405    -2.7816814165
H      5.7784081776    -0.8736344797    -3.9576587074
H      6.9540862926    -2.2399063365    -3.9284633003
O      1.4969113068    -4.5839893396     2.5974042612
O      2.8945083072    -6.3301858564     3.0264167345
O      7.1543430949    -3.7349612372    -2.0544492022
H      2.2233208565    -3.0305892128     0.9041660069
H      3.7191530622    -2.1171828481    -0.8640096219
H      4.9524458011    -6.3132228410     1.5270170949
H      6.4549006884    -5.3967237153    -0.2549146353
H     -7.5262163154    -0.0867062392    -4.1665312695
C     -7.5341494555     4.4449806676     0.8566756242
C     -6.8774434128    -0.4029611142    -3.3344675912
C     -7.9618136412     1.3617058680    -2.1243464721
C     -6.4190631432     3.6679481968     0.4924555590
C     -7.4398979380     5.5287422648     1.8828378593
C     -6.5439515196     2.6665535119    -0.4688139369
C     -7.7861154928     2.4267086287    -1.0857505754
C     -8.8978546983     3.2046741439    -0.7198363672
C     -8.7740103787     4.2025584577     0.2413956835
C     -7.4053778898    -1.7156496877    -2.7718589037
O     -8.3763340329     6.2380562362     2.2265019957
O     -9.0080391943     1.1587547261    -2.7264642187
O     -6.8252854415     0.6479544037    -2.3254603408
O     -6.1947110544     5.6547582024     2.4079163779
H     -5.4521442727     3.8534411126     0.9676296356
H     -9.8604777861     3.0134620943    -1.2031154201
H     -9.6372379076     4.8098996486     0.5290640110
H     -6.2283084806     6.3840726976     3.0642849433
H     -5.6761078394     2.0643932125    -0.7490916532
H     -5.8416538732    -0.5056443396    -3.6843684267
H      1.8722141830     6.4733639965     1.5799835152
C      7.0154686100     2.6440830773    -0.9393842543
C      2.8922206842     6.8751642286     1.6617178347
C      5.0252767365     5.9383353383     0.9942958814
C      7.7502183089     3.7059797465    -0.3855278459
C      7.7592626917     1.5213759416    -1.5967806842
C      7.0969323433     4.7658935373     0.2353175447
C      5.6940157412     4.7855899891     0.3158486125
C      4.9553857727     3.7229247495    -0.2378196173
C      5.6105050170     2.6619814210    -0.8598029915
C      2.9379237542     8.2989495674     1.1062933457
O      8.9798016811     1.4437334116    -1.6500139061
O      5.6473589824     6.8348711534     1.5670644621
O      3.6855985445     5.8912961521     0.9041857912
O      6.9273786588     0.5971916282    -2.1332639347
H      8.8420953045     3.6854600802    -0.4505435709
H      3.8642109032     3.7332905293    -0.1749992099
H      5.0345548920     1.8372154222    -1.2870771533
H      7.6657224733     5.5943718781     0.6675834813
H      3.2172351353     6.8509979439     2.7150640604
H     -1.0223410281    -6.4489384377     3.9355649704
C     -4.7037948341    -3.4845413689    -0.9118055516
C     -0.3937998416    -6.0970406015     3.1023170904
C     -2.3677051014    -4.9198936191     2.4157901435
C     -5.0954401536    -3.2119648424     0.4132261376
C     -5.4946848347    -2.9925528500    -2.0844312662
C     -4.3290999354    -3.6870481634     1.4742904878
C     -3.1629641007    -4.4349702729     1.2431742797
C     -2.7699943180    -4.7055132850    -0.0818632764
C     -3.5383310853    -4.2335689665    -1.1428961654
C      0.5807716772    -5.0529074664     3.6297315771
O     -5.2177871901    -3.2423809284    -3.2504483678
O     -2.6966145880    -4.7513277047     3.5828770139
O     -1.2390085619    -5.5715794483     2.0372603741
O     -6.5578904069    -2.2380153533    -1.7071897150
H     -5.9994321502    -2.6292851743     0.6052020080
H     -1.8641572554    -5.2853216484    -0.2738321178
H     -3.2434765066    -4.4409232066    -2.1762912542
H     -4.6261061808    -3.4832645123     2.5077719898
H      0.1351832606    -6.9447891565     2.6469062605
H     -7.4708575672    -2.4510482724    -3.5893111246
H     -8.3908062870    -1.5840829757    -2.3054926582
H      1.1528799919    -5.4898863091     4.4633621391
H      0.0550278182    -4.1499992272     3.9677489230
H      8.2027514825    -0.1780674769    -3.6108948788
H      8.2087713206    -1.0614409335    -2.0520337317
O      4.0260453959     9.0897183178     1.5969246155
H      2.0086182562     8.8029826446     1.4237913761
H      2.9313343548     8.2539189828    -0.0023843387
H      4.8028573046     8.4851292149     1.6255652281
