91
pet config_89380 from config_89380.mcos (coord_rad bohr -> angstrom)
C      4.1102588579    -3.2220931762     1.0019272110
C      4.8256857332    -4.1326383720     0.2017159360
C      6.2304868966    -4.0938204703     0.2052347291
C      6.9080048793    -3.1645116352     0.9885690512
C      4.7885127820    -2.2871200209     1.7812463665
C      6.1955214288    -2.2487406865     1.7810386206
C      4.1333683143    -5.1369376234    -0.6668330708
C      6.9589522119    -1.2441192465     2.5881831473
O      6.1422640901    -0.3217439256     3.1567472339
C      6.7728295437     0.7249185294     3.9508921163
C      7.2748071365     1.8724127870     3.0931505614
H      7.6190457052     0.3063704170     4.5174775383
H      5.9861973090     1.0605720932     4.6412206907
O      2.7813253569    -5.0374935505    -0.5879846184
O      4.7162978455    -5.9529681522    -1.3685624203
O      8.1764156808    -1.2461589091     2.7145708340
H      3.0177139180    -3.2493279345     1.0054007614
H      4.2294671732    -1.5780191466     2.3969493000
H      6.7819414427    -4.8036789466    -0.4183411580
H      8.0015485270    -3.1320656317     0.9930331225
H     -7.2194504451     0.5762100325    -2.9716884066
C     -8.1624421589    -0.6736407432     3.7803124609
C     -6.9238314250     1.3196807838    -2.2181684855
C     -7.4262162699     1.4810508204     0.1211516717
C     -7.9531106625    -1.3832761559     2.5835048621
C     -8.4220388680    -1.3722249241     5.0769610729
C     -7.7137686738    -0.6988454492     1.3932690900
C     -7.6825904198     0.7082863584     1.3782644837
C     -7.8923661381     1.4139500783     2.5754049094
C     -8.1294550872     0.7310681054     3.7639036353
C     -5.4722927110     1.7243999272    -2.3900706007
O     -8.6293417344    -0.8015810995     6.1396977990
O     -7.4463061103     2.7027473412     0.0520406366
O     -7.1700191887     0.6700833857    -0.9373284756
O     -8.4047287254    -2.7245033928     4.9627251024
H     -7.9790247812    -2.4761496914     2.5910950508
H     -7.8668120810     2.5074672440     2.5573791637
H     -8.2929669540     1.2771140220     4.6976448538
H     -8.5843199768    -3.0945509325     5.8541926201
H     -7.5510170816    -1.2531823914     0.4656198555
H     -7.5542788665     2.2178163286    -2.3063296794
H     -1.3327330220     4.4394551957    -1.4943392691
C      5.1660390253     3.9619663126     0.8562903491
C     -0.5046017578     4.8920847328    -2.0599388271
C      1.7662272763     5.3375470083    -1.4138338301
C      5.2641197437     5.0854457406     0.0181455047
C      6.3866413737     3.5005147281     1.5917597187
C      4.1568307989     5.5263891916    -0.7004407620
C      2.9287797936     4.8507564651    -0.6016178344
C      2.8279970904     3.7271432326     0.2399611025
C      3.9344879692     3.2894730828     0.9650348148
C     -0.4637482250     4.3626107616    -3.4944262049
O      7.4952043930     4.0070978321     1.4759766760
O      1.7925846387     6.3516422100    -2.1011605077
O      0.6885810587     4.5280395256    -1.2981753256
O      6.1284979170     2.4440741253     2.3994182635
H      6.2241779491     5.6037325783    -0.0634761482
H      1.8752102979     3.1976771830     0.3199342169
H      3.8522019883     2.4159772262     1.6167149050
H      4.2294401571     6.4001600817    -1.3548743147
H     -0.6119964545     5.9889027022    -2.0692528551
H      1.2070936787    -6.1680287231    -3.3869092596
C     -2.6020958333    -0.6292404836    -2.6248552327
C      1.7260912663    -5.4020340617    -2.7894987495
C     -0.4284173206    -4.3513539219    -2.7258299182
C     -3.2835934400    -1.8605702115    -2.6756213497
C     -3.3434319093     0.6687596359    -2.5975644251
C     -2.5635764600    -3.0511704074    -2.7106509481
C     -1.1592409835    -3.0438687849    -2.6919027714
C     -0.4781181475    -1.8128735199    -2.6364206519
C     -1.1972246287    -0.6204511914    -2.6055716762
C      2.0031912161    -5.9629562540    -1.4018847219
O     -2.8199683998     1.7761014667    -2.7119598718
O     -0.9827844960    -5.4424249728    -2.7452946703
O      0.9186503041    -4.1886599913    -2.7408044617
O     -4.6689396607     0.5050969752    -2.4253070240
H     -4.3757974956    -1.8789341272    -2.6914548164
H      0.6140873988    -1.7954068866    -2.6168721300
H     -0.6693799000     0.3369682777    -2.5604201314
H     -3.0840896932    -4.0127744934    -2.7539307541
H      2.6552189093    -5.1001936853    -3.2916761690
H     -5.1215012967     2.3653210263    -1.5670651152
H     -5.3529068103     2.2671813244    -3.3423351294
H      2.5473609458    -6.9149243801    -1.5047734385
H      1.0727689789    -6.1209041294    -0.8401576991
H      8.0159847617     1.5370815419     2.3513303775
H      7.7378442823     2.6366090896     3.7396717144
O     -0.3716650935     2.9382111731    -3.5838230369
H      0.4150257121     4.7698297164    -4.0196263662
H     -1.3702692772     4.7472375608    -4.0051886035
H     -1.2243613132     2.5501514779    -3.2799099190
