91
pet config_25330 from config_25330.mcos (coord_rad bohr -> angstrom)
C      3.5351995383     1.8561227943     0.3463354271
C      3.2168631996     1.0402734057     1.4483617029
C      4.0825459297     1.0123107938     2.5548139359
C      5.2411747214     1.7824322523     2.5627349222
C      4.6991595782     2.6225000760     0.3513516626
C      5.5634632763     2.5939171294     1.4617510375
C      1.9792908895     0.1983389921     1.4794036423
C      6.8238006983     3.4041129491     1.5095227530
O      7.0323526738     4.0843063311     0.3538636006
C      8.2265494020     4.9142763817     0.2532143473
C      9.0210826680     4.5133232727    -0.9711835557
H      8.8192364068     4.8188783214     1.1749044785
H      7.8844589344     5.9544575827     0.1354066738
O      1.2025831183     0.3890422638     0.3800751881
O      1.6978283105    -0.5761937916     2.3833492590
O      7.5709602753     3.4420939489     2.4777306334
H      2.8650766521     1.8834994944    -0.5166326433
H      4.9448261573     3.2517706892    -0.5078157654
H      3.8313143843     0.3765370464     3.4089261815
H      5.9152377804     1.7648727161     3.4242022334
H    -11.9327249672    -4.0672749916    -1.1312532564
C    -13.7515672235     2.4487242756    -1.0053312262
C    -11.0651688880    -3.4055232627    -0.9807321656
C    -12.7204449128    -1.7150782157    -0.5853243762
C    -14.6280591655     1.5524630505    -0.3649204708
C    -14.0867408652     3.8977020955    -1.1620220533
C    -14.2771387217     0.2107571663    -0.2392309060
C    -13.0555956435    -0.2637806970    -0.7443543767
C    -12.1784635570     0.6338314914    -1.3836870952
C    -12.5295492155     1.9751253597    -1.5103894843
C    -10.4284750678    -3.7287334783     0.3639607267
O    -13.3554076697     4.7220212461    -1.6948720384
O    -13.4713680994    -2.5396731438    -0.0808247775
O    -11.4880102971    -2.0132453690    -1.0685463724
O    -15.3011479193     4.2194380433    -0.6489848207
H    -15.5809200712     1.9107960386     0.0323908997
H    -11.2256142138     0.2746882481    -1.7795171215
H    -11.8564878962     2.6811468886    -2.0066724351
H    -15.4329673624     5.1813090147    -0.7944376952
H    -14.9514236479    -0.4947981719     0.2558357702
H    -10.3490019144    -3.5323837055    -1.8034930128
H     14.6268681822    -4.4133757293    -2.1600706274
C     10.9463876850     1.3544404011    -1.3645692528
C     14.0625134058    -4.2960896656    -1.2238846136
C     12.6642976207    -2.4831501266    -0.4298371467
C     10.7248325243     0.7562912101    -0.1093657180
C     10.3680400325     2.6919954822    -1.7148185954
C     11.2865349772    -0.4857664010     0.1746701813
C     12.0738067889    -1.1539064436    -0.7775487291
C     12.2944908204    -0.5559280109    -2.0333660477
C     11.7344712363     0.6869400225    -2.3163704965
C     13.2099493660    -5.5396490227    -0.9694402625
O     10.5490043126     3.2598102048    -2.7841055807
O     12.5699348841    -2.9880530921     0.6905205607
O     13.2963250921    -3.0608060117    -1.4648509431
O      9.6207348999     3.2104908318    -0.7112960439
H     10.1148007231     1.2674649373     0.6389696685
H     12.9070581789    -1.0668731002    -2.7800912585
H     11.9012997606     1.1632884261    -3.2874745897
H     11.1223035509    -0.9591776448     1.1476339318
H     14.7611372757    -4.1178933142    -0.3896349294
H     -1.3034630448     1.3181115768     0.5942344163
C     -6.8949027250    -2.5465827265     0.4227605223
C     -1.1514570693     0.3046062098     0.9991812208
C     -3.4879994670    -0.0521235723     1.2939877469
C     -7.0287622695    -1.4029411816     1.2334958048
C     -8.0635928725    -3.4263649108     0.1018213187
C     -5.9155902458    -0.6118672467     1.5057293584
C     -4.6548085672    -0.9370225691     0.9792870890
C     -4.5210328939    -2.0802065607     0.1680397880
C     -5.6337994244    -2.8722529349    -0.1026461791
C     -0.0076205128    -0.4126377274     0.2823887876
O     -7.9824271207    -4.4651870924    -0.5407821169
O     -3.5577506777     0.9669874214     1.9676079559
O     -2.3331201656    -0.5056865050     0.7461372005
O     -9.2262058483    -2.9410784051     0.6065590500
H     -8.0048147880    -1.1399699250     1.6478812763
H     -3.5454421272    -2.3428308986    -0.2479909900
H     -5.5401512603    -3.7631212498    -0.7313752762
H     -6.0082588758     0.2783722554     2.1357371699
H     -0.9741400668     0.3700609575     2.0836651671
H    -10.1813434849    -4.8018104545     0.3910509073
H    -11.1000606033    -3.4772151306     1.1956118191
H     -0.2121067359    -0.4951063539    -0.7941466731
H      0.1669142327    -1.4091496338     0.7146628601
H      9.8174948475     5.2543101321    -1.1523027798
H      8.3842775948     4.4490810406    -1.8681669369
O     12.8428970903    -5.7343599817     0.4005969854
H     13.8134275388    -6.4152174333    -1.2653834682
H     12.3202154270    -5.5080771935    -1.6316750140
H     12.6234002548    -4.8389059734     0.7468637579
