155
polyurethane PU_conf_0 from PU_conf_0.cosmo (coord_rad bohr -> angstrom)
O     12.1612644114    11.6899849606    -0.9064689204
C     13.2951861004    11.9776483726    -0.0613875368
C     14.6363876932    11.9118446243    -0.8070051339
C     14.9742887617    10.5343778376    -1.4130885739
C     15.3990286694     9.5239789847    -0.3528141883
O     15.7046845065     8.2752414237    -1.0440830540
C     16.0961763791     7.2384020762    -0.2456512212
O     16.1938734822     7.2988248135     0.9765880264
N     16.3543529667     6.1457042037    -1.0388950031
C     16.7889424991     4.8651586950    -0.6449550447
C     17.0270227556     3.9101007973    -1.6553424874
C     17.4635629825     2.6212302698    -1.3539803805
C     17.6902975883     2.2351545264    -0.0211822178
C     17.4621723957     3.1826496701     0.9881334990
C     17.0219419805     4.4759741196     0.6872098461
C     18.1486624509     0.8196940475     0.3177942580
C     16.9996076953    -0.1839253718     0.3450146041
C     16.7230317614    -0.9968567671    -0.7646363708
C     15.6606068891    -1.9067330188    -0.7542988891
C     14.8253435707    -2.0238656675     0.3719926681
C     15.1122766878    -1.2090508265     1.4867838092
C     16.1727304963    -0.3045512501     1.4756652127
N     13.7479896705    -2.9259135253     0.4760277993
C     13.2462697714    -3.7639552909    -0.4892014146
O     13.6400278587    -3.8758808858    -1.6461319025
O     12.2129051070    -4.4798802155     0.0482362724
C     11.5529264573    -5.4011569469    -0.8632686465
C     10.4559814852    -6.1175962239    -0.1039132027
O      9.4027044189    -5.1993808827     0.2005895249
C      8.3312580232    -5.8288094429     0.9089217279
C      7.2948356829    -4.7519886968     1.2206143546
O      6.1878209654    -5.4062171593     1.8527831178
C      5.2512703691    -4.5084961168     2.4574819117
C      4.3645015657    -3.7491379216     1.4692719986
O      3.5580716501    -4.6421043948     0.6528306297
C      2.3558198787    -5.0294600854     1.1841392954
O      1.9192751022    -4.6603560820     2.2700306100
N      1.7416601215    -5.8772095665     0.2968970095
C      0.4919633485    -6.5158446046     0.4238754712
C     -0.3010495451    -6.4927277960     1.5872792616
C     -1.5207321870    -7.1735986506     1.6358561140
C     -1.9863434000    -7.9150886092     0.5380960543
C     -1.1917601025    -7.9508934654    -0.6199462229
C      0.0231513441    -7.2674845709    -0.6718983699
C     -3.3286116570    -8.6390977401     0.5917478849
C     -4.5052363101    -7.7235120467     0.2668481389
C     -4.8769252857    -7.4680457037    -1.0646687126
C     -5.9378634242    -6.6113907396    -1.3540365646
C     -6.6668463951    -5.9668468923    -0.3329987610
C     -6.2967289450    -6.2319384616     0.9988285745
C     -5.2326381295    -7.0925155829     1.2874644539
N     -7.7273895327    -5.1223747857    -0.7144406489
C     -8.5801512226    -4.4074609609     0.0933505111
O     -8.5698139817    -4.3691733358     1.3205557249
O     -9.4635703526    -3.7296809951    -0.6958019431
C    -10.4552433661    -2.9218160794     0.0107689523
C    -11.2832984010    -2.1777244707    -1.0300955367
C    -10.4871742331    -1.1244190756    -1.8216598277
C    -11.3006772703    -0.4224439416    -2.9261753389
C    -12.4198563871     0.4768082008    -2.3799993504
C    -13.2231386012     1.1736992305    -3.4647137306
O    -13.3132368059     0.8031427685    -4.6274824711
O    -13.8541068311     2.2696135489    -2.9707545974
C    -14.7265553853     3.0149951345    -3.8867781893
C    -16.1601214730     2.4860641117    -3.8577545736
C    -16.8562381382     2.6306072017    -2.4937877201
C    -18.2967816241     2.0921319175    -2.5096671490
C    -18.9854487107     2.1430341757    -1.1365367548
C    -19.3258720819     3.5515109585    -0.6744014975
O    -19.6040386036     4.4902874567    -1.4090570406
O    -19.3241347941     3.6409055695     0.6777916151
C    -19.7104826425     4.9350726808     1.2495796142
C    -19.6201841507     4.8216827623     2.7673111824
C    -18.1978308198     4.5873010654     3.3168992329
C    -17.2113275008     5.7574332505     3.1309180976
C    -17.5889094952     7.0060386908     3.9693438572
C    -16.5970892295     8.1355967269     3.7427153358
O    -16.6339424323     8.9024341600     2.7953385004
O    -15.5772469583     8.2574351052     4.6430064546
H     12.1283859131    12.3809221986    -1.5932292080
H     13.1855457201    12.9757249689     0.4080073878
H     13.2509393763    11.2282468876     0.7474985098
H     15.4344570259    12.2308281407    -0.1091136853
H     14.6212891965    12.6656134670    -1.6171112527
H     15.7938046677    10.6448953234    -2.1446774620
H     14.0988958689    10.1465562321    -1.9634922803
H     14.6041602845     9.3309751039     0.3875808216
H     16.2994859941     9.8620935386     0.1881845963
H     16.2180048402     6.2918650173    -2.0397004576
H     16.8640989462     4.1884209052    -2.7033790778
H     17.6435849940     1.9129325290    -2.1709446157
H     17.6417933113     2.9136998674     2.0353247250
H     16.8543921461     5.1972785914     1.4885300147
H     18.6532877948     0.8265697856     1.2999695462
H     18.9009533764     0.4907320358    -0.4206694069
H     17.3593439505    -0.9343342840    -1.6547867166
H     15.4653054860    -2.5293516452    -1.6288263579
H     14.4835756632    -1.2867258029     2.3818586144
H     16.3651522829     0.3050237169     2.3661360658
H     13.2723157709    -2.9650905132     1.3781029363
H     11.1391426932    -4.8398132423    -1.7174293096
H     12.2843893096    -6.1353098001    -1.2392921059
H     10.8628614469    -6.5671607226     0.8257828069
H     10.0803019191    -6.9407799546    -0.7477868523
H      8.6974380814    -6.2873493877     1.8500923011
H      7.8688100126    -6.6279602879     0.2924524304
H      6.9933759570    -4.2511743950     0.2788872825
H      7.7292946608    -3.9879722320     1.8964627659
H      5.7801096108    -3.7555484731     3.0796659829
H      4.6252037335    -5.1264186105     3.1209560626
H      3.7091254997    -3.0637191807     2.0307542843
H      4.9573597445    -3.1735821764     0.7434835982
H      2.2551917986    -6.0492016564    -0.5682847346
H      0.0419377778    -5.9238427712     2.4528883045
H     -2.1095012624    -7.1388632766     2.5600895081
H     -1.5193171155    -8.5297539146    -1.4906943209
H      0.6244914288    -7.3119941732    -1.5876700918
H     -3.4714119599    -9.0719531217     1.5975133655
H     -3.3148208488    -9.4859875911    -0.1167569334
H     -4.3418367115    -7.9544459166    -1.8883864095
H     -6.2124243260    -6.4333338666    -2.4006990989
H     -6.8500629992    -5.7544614474     1.8089454347
H     -4.9745735458    -7.2837845130     2.3354013873
H     -7.8928662114    -5.0255918352    -1.7168659012
H     -9.9294282110    -2.2260352402     0.6874156790
H    -11.0833701449    -3.5918577349     0.6218216923
H    -12.1185608582    -1.7035660531    -0.4825628384
H    -11.7386261568    -2.9105915824    -1.7226852966
H     -9.6133561755    -1.6139894255    -2.2875825361
H    -10.0818191136    -0.3690646590    -1.1199874028
H    -11.7360708463    -1.1749810626    -3.6073460361
H    -10.6187563483     0.1913918707    -3.5420057975
H    -12.0216570570     1.2400780291    -1.6891522835
H    -13.1505705432    -0.1112258985    -1.7912171834
H    -14.3013664178     2.9602276264    -4.9009867317
H    -14.6742152169     4.0521992207    -3.5192190028
H    -16.1622574370     1.4280596462    -4.1786918838
H    -16.7248120962     3.0463338082    -4.6279863955
H    -16.8580216845     3.6986867235    -2.2004962347
H    -16.2742059225     2.0929346381    -1.7223695585
H    -18.2922712597     1.0419032707    -2.8552558960
H    -18.9028190317     2.6629254073    -3.2367593633
H    -19.9487995950     1.5985667023    -1.1761966850
H    -18.3812434202     1.6468445063    -0.3587966121
H    -19.0407027026     5.7108649519     0.8415923735
H    -20.7379360119     5.1678196977     0.9231179429
H    -20.2805425550     3.9999156719     3.0991873590
H    -20.0562666042     5.7472683312     3.1861920117
H    -18.2695458410     4.3451069351     4.3934719249
H    -17.7711382754     3.6906882264     2.8322712867
H    -17.1432030362     6.0471648537     2.0666088375
H    -16.2017492555     5.4174468058     3.4234325521
H    -17.6436451313     6.7364558692     5.0388730985
H    -18.5777058455     7.3856026224     3.6651489336
H    -15.6716900456     7.5943989378     5.3561292275
