155
polyurethane PU_conf_2400 from PU_conf_2400.cosmo (coord_rad bohr -> angstrom)
O     24.8663953815     2.2347782501     0.9135229242
C     25.0655962086     0.8085391735     1.0283482004
C     23.7822013302     0.1829246207     1.5754501738
C     22.5576558705     0.3019279588     0.6432937166
C     22.6344895807    -0.6645627010    -0.5399266596
O     21.5136728211    -0.4682391574    -1.4555803763
C     20.3843994153    -1.1961528121    -1.2032590022
O     20.2682746170    -2.0316553308    -0.3114074915
N     19.4234465498    -0.8376484786    -2.1180739044
C     18.1143180203    -1.3391167704    -2.2524623900
C     17.5793355976    -2.3922145216    -1.4866307789
C     16.2711702730    -2.8385629497    -1.6981996339
C     15.4547175035    -2.2650423394    -2.6853331023
C     15.9886369597    -1.2203962150    -3.4593149133
C     17.2916144661    -0.7718006485    -3.2472579287
C     14.0204987906    -2.7428584867    -2.8945608010
C     13.0128118207    -1.9617817250    -2.0560552790
C     12.6822903704    -2.3725952603    -0.7551933454
C     11.7793798773    -1.6481733998     0.0290641682
C     11.1802945940    -0.4727830811    -0.4624078949
C     11.5088345798    -0.0704319683    -1.7728885773
C     12.4076359181    -0.7954151789    -2.5544165901
N     10.2542133550     0.3112140723     0.2535057854
C      9.8141991740     0.1414463706     1.5432173236
O     10.1415328387    -0.7478710312     2.3229116887
O      8.9328434043     1.1441808912     1.8387608817
C      8.3602325251     1.1034727025     3.1739026009
C      7.3405367681     2.2313360055     3.2796649495
O      6.2035413973     2.0916699495     2.4203793498
C      5.2570613212     1.1087798307     2.8603557916
C      4.0177122591     1.2619781421     1.9675576100
O      3.0225935987     0.2691229250     2.2428564495
C      2.2127820489     0.5650174845     3.3877046894
C      1.0446962877    -0.4063508445     3.4302058948
O      0.1360097164    -0.2348412053     2.3081923128
C     -0.8855491310     0.6609328727     2.4861705469
O     -1.0965605557     1.2869807242     3.5201667152
N     -1.6160249829     0.7206694251     1.3257253618
C     -2.7596261875     1.4969369496     1.0535487757
C     -3.3765559492     2.3624781434     1.9760585438
C     -4.5084512544     3.1014756145     1.6174135630
C     -5.0631693023     3.0076408201     0.3318894321
C     -4.4464007871     2.1496302761    -0.5949479705
C     -3.3173702280     1.4137106451    -0.2389062194
C     -6.3166008307     3.7926049927    -0.0432322860
C     -7.5949843974     2.9861322371     0.1664475187
C     -8.2189098304     2.9301368322     1.4247841612
C     -9.3601163562     2.1545077705     1.6397825594
C     -9.9135736456     1.3783128706     0.6007192920
C     -9.3000904198     1.4545944323    -0.6652401882
C     -8.1609869941     2.2349782826    -0.8801823514
N    -11.0717634785     0.5906760942     0.7331309086
C    -11.6672691802     0.1847541719     1.9039855004
O    -11.2697499895     0.4020886386     3.0457764470
O    -12.8004281327    -0.5129725660     1.5977440314
C    -13.4584703620    -1.1998947355     2.7040404557
C    -14.8209688789    -1.6687285527     2.2024700151
C    -15.4382102246    -2.7101889741     3.1539932287
C    -16.8745229318    -3.1343011092     2.7832294556
C    -17.0595048427    -3.6244148264     1.3333425211
C    -16.1938438219    -4.8197012637     0.9682589573
O    -15.9496179340    -5.7624986197     1.7092814407
O    -15.7404745626    -4.7132993411    -0.3077341507
C    -14.8872861543    -5.7811321889    -0.8411906064
C    -13.4688953258    -5.2590913788    -1.0654275422
C    -13.3773272537    -4.1126062110    -2.0874511334
C    -11.9353231196    -3.6223002743    -2.3008360005
C    -11.8205641898    -2.5024756970    -3.3548450675
C    -12.4023993567    -1.1810998642    -2.8842926624
O    -12.1701260903    -0.6710018996    -1.7914991309
O    -13.2019862925    -0.6154557140    -3.8143829444
C    -13.7933233526     0.6895540095    -3.4872021268
C    -12.8257091327     1.8314427634    -3.7943829485
C    -13.4470212062     3.1980416737    -3.4438356498
C    -12.4578291496     4.3761780487    -3.5668641803
C    -11.3540317902     4.3288985873    -2.5018873180
C    -10.4015959004     5.5127957470    -2.5353309498
O    -10.5747690316     6.5463990793    -3.1572299222
O     -9.2763217760     5.3872336958    -1.7725038580
H     25.6656908593     2.6111711716     0.5042591190
H     25.3279051797     0.3759492690     0.0413455259
H     25.9031848686     0.5893477787     1.7209187377
H     23.5504956963     0.6662340136     2.5423450972
H     23.9881801571    -0.8801727381     1.8014308324
H     22.4747310921     1.3362547343     0.2666200780
H     21.6387870383     0.0874470827     1.2161215401
H     22.6391744663    -1.7120779232    -0.1986303774
H     23.5228125971    -0.4827295026    -1.1643896688
H     19.7006078026    -0.1097782119    -2.7776140149
H     18.1971303479    -2.8553027895    -0.7156283560
H     15.8887977427    -3.6655060051    -1.0887040521
H     15.3847982917    -0.7583605488    -4.2485976376
H     17.6857295111     0.0430840266    -3.8662289053
H     13.9524793122    -3.8156970640    -2.6424573911
H     13.7565246265    -2.6522726102    -3.9629528648
H     13.1247609549    -3.2875231664    -0.3443325115
H     11.5338149794    -1.9886941449     1.0361936928
H     11.0473722212     0.8341474570    -2.1866164662
H     12.6299568291    -0.4536268580    -3.5715803720
H      9.8705305327     1.1209972864    -0.2351253416
H      7.9072106524     0.1140648911     3.3482030853
H      9.1562765251     1.2587542080     3.9225992701
H      7.8156105062     3.1869210671     3.0019352283
H      7.0210372349     2.2953021166     4.3406676589
H      5.0063286647     1.2771590689     3.9273490111
H      5.6525408465     0.0786225092     2.7571651698
H      4.3126942258     1.1234722560     0.9139928080
H      3.5985459792     2.2817873412     2.0806241854
H      1.8466516573     1.6101459804     3.3392968920
H      2.7812419016     0.4446477995     4.3328052007
H      1.4019216266    -1.4436100113     3.3449561067
H      0.4950073878    -0.2764566854     4.3754463528
H     -1.2798305307     0.1240224721     0.5687710422
H     -2.9602427957     2.4536390305     2.9805102740
H     -4.9596692090     3.7729675130     2.3568183147
H     -4.8425928717     2.0635908724    -1.6131501008
H     -2.8501295696     0.7558396860    -0.9813279205
H     -6.2493997052     4.1058444236    -1.0998118394
H     -6.3634951443     4.7175291564     0.5578582528
H     -7.8149086007     3.5182379458     2.2568557379
H     -9.8204624891     2.1250326516     2.6285546932
H     -9.7118499574     0.8661097871    -1.4924481654
H     -7.7063388495     2.2554240910    -1.8773671402
H    -11.4738749991     0.2010745527    -0.1298075266
H    -13.5448869542    -0.5135803877     3.5615997526
H    -12.8254213268    -2.0550166678     3.0039870982
H    -14.6878217896    -2.1064449054     1.1977094272
H    -15.4934334156    -0.7984824087     2.0872577322
H    -15.4524248982    -2.3105287088     4.1853300896
H    -14.7855913650    -3.6026862830     3.1812574400
H    -17.5624745733    -2.2828014532     2.9340900882
H    -17.1993566846    -3.9290441959     3.4772654442
H    -16.8793338404    -2.8204012231     0.6027486019
H    -18.1084853628    -3.9472334997     1.1912206859
H    -15.3595437144    -6.0793712708    -1.7921370820
H    -14.9017063859    -6.6300426139    -0.1408995114
H    -12.8601421282    -6.1172261721    -1.4097669651
H    -13.0426851654    -4.9422346669    -0.0947897737
H    -14.0135257409    -3.2731888072    -1.7485061375
H    -13.7954914530    -4.4506377990    -3.0556530977
H    -11.3005492576    -4.4663988289    -2.6276427340
H    -11.5143341675    -3.2605830066    -1.3455302792
H    -10.7536447738    -2.3055706787    -3.5704712023
H    -12.2981633561    -2.7932154901    -4.3041982644
H    -14.6968568954     0.7373146493    -4.1139145546
H    -14.0813408995     0.6889661196    -2.4235375410
H    -12.5488332850     1.8057508295    -4.8639443982
H    -11.9017548088     1.6677313857    -3.2145954654
H    -14.3110906485     3.3853558473    -4.1071436108
H    -13.8475481901     3.1696575130    -2.4119232647
H    -13.0061091159     5.3283147762    -3.4687691432
H    -12.0008882874     4.3834496931    -4.5732163880
H    -10.7556091063     3.4043566945    -2.5803914451
H    -11.8001925061     4.3096521000    -1.4880136993
H     -9.2239533199     4.4978770691    -1.3539723419
