155
polyurethane PU_conf_64 from PU_conf_64.cosmo (coord_rad bohr -> angstrom)
O     15.4118525141     9.9717772358     2.3581410340
C     15.3742265705    10.8255720405     1.1926288169
C     14.4405469654    10.3253761949     0.0826829460
C     14.9009695038     9.0595791449    -0.6681325504
C     14.9044383992     7.8023285365     0.1957642975
O     15.2122687624     6.6828921719    -0.6949729347
C     15.3103158964     5.4591742984    -0.0997933379
O     15.1656091640     5.2514301424     1.1017592880
N     15.5929899107     4.5224379352    -1.0666087472
C     15.7830133948     3.1359201968    -0.9104844200
C     15.9798795492     2.3632184485    -2.0731520890
C     16.1959843381     0.9872511822    -2.0061205538
C     16.2306297259     0.3259101208    -0.7666588087
C     16.0429377134     1.0912880963     0.3950648942
C     15.8301101132     2.4717109550     0.3302305270
C     16.4394903224    -1.1837661852    -0.6888171968
C     15.1265549041    -1.9612229279    -0.7069781919
C     14.5291747526    -2.3440882680    -1.9182001624
C     13.3148359742    -3.0366454986    -1.9431561497
C     12.6461329188    -3.3610670382    -0.7474407744
C     13.2546825326    -2.9812675681     0.4658988345
C     14.4672757385    -2.2930350649     0.4888214195
N     11.4296158304    -4.0686495415    -0.6800294249
C     10.6435526664    -4.5079278082    -1.7168338144
O     10.8500609220    -4.3520385463    -2.9164940505
O      9.5650564472    -5.1685144717    -1.1976735245
C      8.6179792116    -5.6810605434    -2.1751329057
C      7.5163502949    -6.4079594275    -1.4327398820
O      6.7156264867    -5.4637292106    -0.7167216551
C      5.6613559767    -6.0986818208     0.0122075604
C      4.8941899069    -5.0048256535     0.7506123131
O      3.8145843711    -5.6435074394     1.4430287607
C      3.1337881529    -4.7875631267     2.3669980767
C      2.2010143481    -3.7646286759     1.7174586193
O      1.1317979477    -4.3986381220     0.9625902643
C     -0.0067827184    -4.7022228580     1.6622706607
O     -0.1867758455    -4.4504716081     2.8497946036
N     -0.8900293996    -5.3157498852     0.8097341445
C     -2.1883300768    -5.7855910120     1.0898135356
C     -2.7960447224    -5.7465581234     2.3577024423
C     -4.0882215142    -6.2481722097     2.5480205414
C     -4.8150858612    -6.8130780666     1.4895361281
C     -4.2088487166    -6.8606847495     0.2214097004
C     -2.9218401321    -6.3616922968     0.0312270327
C     -6.2300181919    -7.3418292841     1.7019397822
C     -7.3057937272    -6.4044614132     1.1611450844
C     -7.9968257466    -6.7056808571    -0.0238538012
C     -8.9701425240    -5.8380959513    -0.5212391620
C     -9.2893670312    -4.6344528405     0.1373880624
C     -8.6008279490    -4.3414927465     1.3312758456
C     -7.6227800127    -5.2080971903     1.8255077422
N    -10.2971499069    -3.8243131437    -0.4204224636
C    -10.7241615359    -2.5853693827    -0.0039877915
O    -10.2899249825    -1.9394319234     0.9457122451
O    -11.7312408104    -2.1725913460    -0.8271589993
C    -12.2944959976    -0.8567319896    -0.5331279737
C    -13.3870148037    -0.5744799989    -1.5577419899
C    -12.8705870171    -0.4353551189    -3.0006462679
C    -13.9822917579    -0.1748973911    -4.0367910976
C    -14.6476366043     1.2081198533    -3.9346012361
C    -13.7540869804     2.3505732253    -4.3936577971
O    -12.8581568230     2.2614572718    -5.2230678686
O    -14.0978895102     3.5162416935    -3.7940787634
C    -13.3613879889     4.7118122279    -4.2205636382
C    -13.8874968469     5.9008374369    -3.4268605603
C    -13.5727788237     5.8446979875    -1.9220954455
C    -14.1021451113     7.0759089525    -1.1674970692
C    -13.8618420161     7.0180863718     0.3487714397
C    -12.4036110969     7.1873311702     0.7475357147
O    -11.5572271710     7.7945121072     0.1046209798
O    -12.1523193132     6.6081849986     1.9465725992
C    -10.7944474329     6.7665701376     2.4786025397
C    -10.7341468253     6.0595268874     3.8280436560
C    -10.9271561341     4.5293426970     3.7684488650
C     -9.7926306160     3.7429730806     3.0796652535
C     -8.4799938141     3.7535915737     3.8738431980
C     -7.3670306182     2.9482360224     3.2194642858
O     -7.4147092125     2.4340659704     2.1165304457
O     -6.2218575390     2.8169270115     3.9534569943
H     14.5203283172     9.9792820035     2.7517299578
H     15.0809157314    11.8541620365     1.4831477397
H     16.4153836343    10.8655474315     0.8271705471
H     14.3386592035    11.1451811683    -0.6536183784
H     13.4284569412    10.1707454024     0.5054206719
H     15.9120656610     9.2202374131    -1.0860346327
H     14.2257013965     8.8886359862    -1.5255609266
H     13.9166346646     7.6268072750     0.6571520170
H     15.6569683803     7.8466881138     0.9963082995
H     15.6571462487     4.8854595142    -2.0181220488
H     15.9597121518     2.8556274011    -3.0528589400
H     16.3524931584     0.4235585513    -2.9327501032
H     16.0813986192     0.6074031303     1.3780455410
H     15.6886677859     3.0479135582     1.2460338428
H     16.9966058732    -1.4290913030     0.2324212470
H     17.0695889852    -1.5097789172    -1.5349505641
H     15.0271125451    -2.1147523981    -2.8675071494
H     12.8694668228    -3.3264012228    -2.8962013049
H     12.7619721947    -3.2308976707     1.4131179071
H     14.9119997303    -2.0225526890     1.4531557532
H     11.0815114318    -4.2860677269     0.2544588137
H      8.2097250777    -4.8439391585    -2.7655107424
H      9.1317809341    -6.3800917686    -2.8552904102
H      7.9515203406    -7.1568610786    -0.7386083575
H      6.9017110017    -6.9500833931    -2.1821215565
H      6.0706620325    -6.8306057771     0.7380984033
H      4.9779982131    -6.6392473586    -0.6757161455
H      4.5294339030    -4.2558551703     0.0193283675
H      5.5627877924    -4.4900700188     1.4698629728
H      3.8640073272    -4.2297617349     2.9908961572
H      2.5545087227    -5.4530611490     3.0273049094
H      1.7712767556    -3.1211960760     2.5021040660
H      2.7269632831    -3.1398423361     0.9809453260
H     -0.5604362029    -5.4318968596    -0.1492552619
H     -2.2502739846    -5.3120073665     3.1965261508
H     -4.5330031502    -6.2066962441     3.5487289416
H     -4.7418167780    -7.3026447328    -0.6286031548
H     -2.4688639434    -6.4131930818    -0.9660854219
H     -6.3957948989    -7.5070939401     2.7813484867
H     -6.3314598185    -8.3279456008     1.2149054720
H     -7.7779750052    -7.6348392982    -0.5615903045
H     -9.4951659360    -6.0974987625    -1.4485116213
H     -8.8335033952    -3.4178314447     1.8635248083
H     -7.1095844196    -4.9477155552     2.7590501100
H    -10.7693841767    -4.1925020111    -1.2466721625
H    -11.4859093430    -0.1066718529    -0.5828703160
H    -12.6970454015    -0.8664110907     0.4935150085
H    -13.8860891233     0.3568352887    -1.2324372653
H    -14.1490338002    -1.3749782370    -1.5018863846
H    -12.3389917518    -1.3619226139    -3.2811263347
H    -12.1158428014     0.3740504588    -3.0458861489
H    -14.7663718782    -0.9474554966    -3.9329242684
H    -13.5649126192    -0.2858674769    -5.0525664235
H    -15.0146067003     1.4296296059    -2.9191668992
H    -15.5397184873     1.2434000494    -4.5898026960
H    -13.5146957251     4.8444005165    -5.3046058535
H    -12.2854785752     4.5419242864    -4.0420214823
H    -14.9785664173     5.9886103100    -3.5872292897
H    -13.4326428341     6.8078308239    -3.8687304002
H    -12.4765682404     5.7645339757    -1.7866739892
H    -14.0135201343     4.9296651285    -1.4852860844
H    -15.1896143528     7.1730294283    -1.3418666529
H    -13.6331928903     7.9920439220    -1.5707417824
H    -14.4084595086     7.8394897882     0.8515529664
H    -14.2453757243     6.0817273739     0.7881054902
H    -10.0831797786     6.3457730465     1.7476576955
H    -10.5822064684     7.8441332851     2.5779839012
H    -11.4998885001     6.5018966033     4.4910698797
H     -9.7581184481     6.3142470727     4.2808301914
H    -11.0556441330     4.1500015238     4.7996017935
H    -11.8755518091     4.3113723255     3.2453963653
H     -9.6047938968     4.1317055201     2.0633058854
H    -10.1142882154     2.6958089554     2.9434739816
H     -8.6403871323     3.3582980340     4.8951904805
H     -8.0952690754     4.7830162705     4.0078364453
H     -6.3154412402     3.2665284841     4.8180040642
