155
polyurethane PU_conf_2300 from PU_conf_2300.cosmo (coord_rad bohr -> angstrom)
O    -21.5705952374    -1.2068889687    -3.9988748022
C    -21.2804203154    -1.4630863373    -2.6072313511
C    -22.2075162990    -2.5311351433    -2.0116633267
C    -21.9075167716    -2.8898449659    -0.5419453920
C    -22.2918008171    -1.8324294233     0.4947342363
O    -21.4428850902    -0.6429483524     0.4391422681
C    -20.3100627967    -0.6672955365     1.2047947165
O    -19.9824307486    -1.5875538954     1.9481605270
N    -19.6227323731     0.5051426938     1.0014277054
C    -18.4126109810     0.9220359113     1.5895121906
C    -17.7178153781     0.2052248199     2.5821279836
C    -16.5266582206     0.7006898718     3.1213310241
C    -15.9923549894     1.9299756195     2.7046704976
C    -16.6897441642     2.6546389608     1.7230382123
C    -17.8757861764     2.1602635458     1.1815428521
C    -14.6785689455     2.4510757903     3.2800234169
C    -13.4631394107     1.9822645778     2.4853757469
C    -12.8060241812     0.7848782841     2.8086417682
C    -11.7069282971     0.3357188406     2.0700398004
C    -11.2318237662     1.0704393960     0.9671129637
C    -11.8903736187     2.2766958246     0.6526475398
C    -12.9846957692     2.7241462140     1.3918414551
N    -10.1265826012     0.6990876249     0.1766864032
C     -9.3638607524    -0.4401960283     0.2631656238
O     -9.5008053056    -1.3581755201     1.0663167627
O     -8.4052112402    -0.3981322734    -0.7095270618
C     -7.5029279557    -1.5383292744    -0.7543893466
C     -6.4358702918    -1.2531636842    -1.8018885275
O     -5.5707007804    -0.1585864293    -1.4596219595
C     -4.4896492609    -0.4947509353    -0.5724393502
C     -3.2091634027    -0.8931541088    -1.2964495566
O     -3.3767392963    -2.1930649427    -1.8875703017
C     -2.3355230907    -2.5740284853    -2.7939283292
C     -1.1180218169    -3.2146442487    -2.1273891244
O     -0.3077343302    -2.2645458100    -1.3778674636
C      0.6894266266    -1.6331779152    -2.0746181649
O      0.9517440363    -1.8321823357    -3.2566007847
N      1.3283369487    -0.7634464055    -1.2265791653
C      2.4172851988     0.0853817200    -1.5071322729
C      3.0041099238     0.2392137277    -2.7773257622
C      4.0760868192     1.1162102698    -2.9692637656
C      4.5955923401     1.8752180878    -1.9091547256
C      4.0061370409     1.7327167537    -0.6414091308
C      2.9386951462     0.8568389279    -0.4485271017
C      5.7853683567     2.8072144675    -2.1184785693
C      7.1207471437     2.1121460599    -1.8676571166
C      7.7647184427     1.3893851120    -2.8873541378
C      8.9580725446     0.7029355446    -2.6538986676
C      9.5469043524     0.6930347430    -1.3728248986
C      8.9135681796     1.4384267549    -0.3588975450
C      7.7220404713     2.1287855183    -0.5953475954
N     10.7586148909     0.0466985128    -1.0674521767
C     11.3719997793    -0.9445038152    -1.7966022402
O     10.9517671815    -1.4685009660    -2.8249646230
O     12.5522759843    -1.2653723779    -1.1896171608
C     13.2439675995    -2.4449365314    -1.6984839646
C     14.6347839337    -2.4616013029    -1.0713287781
C     15.3044095501    -3.8388019681    -1.2326615464
C     16.7660745136    -3.8939446481    -0.7416266586
C     16.9923545363    -3.3994760404     0.7002251472
C     16.2070370508    -4.1665664276     1.7519440549
O     15.9841519590    -5.3694937346     1.7252962919
O     15.8020949256    -3.3364544942     2.7479403923
C     15.0355395420    -3.9012416919     3.8641736282
C     13.5882641960    -3.4132658474     3.8139506125
C     13.4376473940    -1.8866056324     3.9310365291
C     11.9686898441    -1.4314823941     3.9076616343
C     11.8006508510     0.0950090622     4.0474476561
C     12.2510525973     0.8562499395     2.8130207265
O     11.9391513787     0.5568459967     1.6634774635
O     13.0297312942     1.9154376586     3.1217463517
C     13.5005116485     2.7513245492     2.0084090957
C     12.4548678882     3.7921833686     1.6113931316
C     12.9590689995     4.6715829793     0.4499831739
C     11.8919157189     5.6408795174    -0.1003963673
C     10.7547251459     4.9137702521    -0.8305851205
C      9.7194634306     5.8416731341    -1.4453852066
O      9.8401567163     7.0464535619    -1.5838826315
O      8.5778891412     5.2417822407    -1.8927768907
H    -21.4126660155    -2.0357845995    -4.4864754415
H    -20.2222771347    -1.7723861993    -2.4819920899
H    -21.4081415652    -0.4960570653    -2.0974031893
H    -22.1091375952    -3.4498128981    -2.6210228242
H    -23.2577291433    -2.1985199117    -2.1134531321
H    -20.8417727004    -3.1542888850    -0.4149293805
H    -22.4788250967    -3.7992793744    -0.2763825083
H    -22.2396995939    -2.2505334584     1.5122303628
H    -23.3060972863    -1.4440095267     0.3103729704
H    -20.0486986196     1.1492182117     0.3341192603
H    -18.1164828582    -0.7513618713     2.9235528012
H    -16.0148636071     0.1197940868     3.8974096606
H    -16.3099529460     3.6253044287     1.3844008329
H    -18.4018066899     2.7462319393     0.4184537198
H    -14.5807230173     2.1177004141     4.3280898678
H    -14.6997550535     3.5548867549     3.3002821078
H    -13.1456679400     0.1923358716     3.6660740698
H    -11.2087436023    -0.5962804637     2.3416638070
H    -11.5346130923     2.8757101941    -0.1941042300
H    -13.4638057367     3.6714851809     1.1198912869
H     -9.8622432179     1.3451082601    -0.5679411949
H     -7.0673125461    -1.6987307857     0.2455211361
H     -8.0691242499    -2.4431230741    -1.0370926977
H     -6.9196701168    -0.9738437254    -2.7532305246
H     -5.8557536517    -2.1791570395    -1.9684438745
H     -4.7846253129    -1.2946582441     0.1343711737
H     -4.2765654736     0.4138956852     0.0168506505
H     -2.3755854539    -0.8935888848    -0.5661097163
H     -2.9803894483    -0.1468065049    -2.0848686625
H     -2.0249749086    -1.7119081795    -3.4166211380
H     -2.7754502210    -3.3363080873    -3.4611964047
H     -1.4369769283    -3.9584824883    -1.3820512936
H     -0.4952661152    -3.6993810230    -2.8969042537
H      0.9730717753    -0.7476204739    -0.2697258346
H      2.6147678545    -0.3392426419    -3.6165740063
H      4.5046563026     1.2173871267    -3.9729986993
H      4.3762414759     2.3209707967     0.2059122497
H      2.4934854054     0.7663295368     0.5493878815
H      5.6911859055     3.6771439987    -1.4451464806
H      5.7654068914     3.2024202000    -3.1492320790
H      7.3330788267     1.3730550335    -3.8946334318
H      9.4326321388     0.1448673542    -3.4625628732
H      9.3530423988     1.4526652977     0.6444905950
H      7.2545727026     2.6864512753     0.2242823488
H     11.1891167665     0.2634685711    -0.1587066606
H     13.2838275681    -2.4000616502    -2.7986548729
H     12.6618174698    -3.3381768319    -1.4067211468
H     14.5333071647    -2.2137411932    -0.0002606416
H     15.2571093627    -1.6690030379    -1.5265774962
H     15.2871292784    -4.1392637072    -2.2970883855
H     14.7050169401    -4.5946257986    -0.6918536891
H     17.4024825748    -3.2803492033    -1.4046937722
H     17.1297080068    -4.9327690581    -0.8282014312
H     16.7694440225    -2.3261050831     0.8062044320
H     18.0605981292    -3.5220856619     0.9628262166
H     15.5473033159    -3.5426769793     4.7728020475
H     15.0952742688    -4.9991719518     3.8164007025
H     13.0528747125    -3.9078818959     4.6472410329
H     13.1163009627    -3.7739858636     2.8805568835
H     13.9939807120    -1.4036745795     3.1055152551
H     13.9118053171    -1.5420786501     4.8707050326
H     11.4167910708    -1.9148630860     4.7346577791
H     11.4862233974    -1.7605443095     2.9697309669
H     10.7300421613     0.3388174889     4.1817604262
H     12.3370885688     0.4804080715     4.9292892096
H     14.4176845666     3.2197300222     2.3968473447
H     13.7520672936     2.0967576755     1.1583918549
H     12.2113237703     4.4242477419     2.4846265985
H     11.5304179356     3.2639637303     1.3230581623
H     13.8317079692     5.2579102010     0.7913911936
H     13.3211222911     4.0266111026    -0.3739727720
H     12.3662064622     6.3503604842    -0.7993385716
H     11.4733931608     6.2490869586     0.7220630685
H     10.2301346126     4.2077726857    -0.1629098883
H     11.1607516154     4.2971109070    -1.6565065060
H      8.5753450299     4.2782902596    -1.6910042463
