155
polyurethane PU_conf_2850 from PU_conf_2850.cosmo (coord_rad bohr -> angstrom)
O     -6.6331130585   -11.8699161613    -2.1513986829
C     -6.6976382688   -10.4282821369    -2.2093838719
C     -5.6218301879    -9.9515877468    -3.1840033900
C     -5.5954495406    -8.4205955521    -3.3611685441
C     -5.0569078821    -7.6388123633    -2.1678123988
O     -3.6454631788    -7.9911170538    -2.0086470903
C     -2.9959248184    -7.4405820817    -0.9563147574
O     -3.5067021831    -6.6769791567    -0.1275273297
N     -1.6935158250    -7.8542513572    -0.9521289655
C     -0.6767864405    -7.5501818486    -0.0209217614
C     -0.8801431317    -6.8669796416     1.1903512810
C      0.1840564407    -6.6378561443     2.0695057715
C      1.4797845745    -7.0899134226     1.7794664971
C      1.6865088427    -7.7781279684     0.5702635597
C      0.6279156635    -8.0035177398    -0.3066646400
C      2.6301871952    -6.8498142934     2.7483261549
C      3.6539207661    -5.8203697944     2.2763859021
C      5.0242740802    -6.1214994927     2.2905595747
C      5.9812513025    -5.1736014433     1.9113896108
C      5.5952573774    -3.8833856114     1.5065691961
C      4.2155520652    -3.5911394240     1.4846772835
C      3.2624361034    -4.5362851507     1.8579575788
N      6.4911747080    -2.8691202623     1.1129199897
C      7.8596823190    -2.8644071421     1.2165654907
O      8.5724243655    -3.7680533216     1.6403679131
O      8.3290579464    -1.6599290139     0.7639287197
C      9.7659303972    -1.4836424385     0.8519802833
C     10.0570535725    -0.0659220586     0.3686072104
O     11.4544065092     0.1493069121     0.5982286656
C     11.9851183718     1.3106566945    -0.0591139279
C     11.5914170661     2.6211380727     0.6495742769
O     12.3053983594     3.7364923984     0.0846378409
C     11.6911303158     4.3510776680    -1.0579275549
C     10.7229974375     5.4796664651    -0.7051140564
O      9.4601182871     4.9983242097    -0.1607541781
C      8.4649199176     4.7539993111    -1.0725167493
O      8.5605203850     4.9474869522    -2.2803342513
N      7.3689983063     4.2701009032    -0.4037789273
C      6.1404129518     3.8429156726    -0.9464927004
C      5.7705826908     3.9871551301    -2.2953187655
C      4.5337934674     3.5191257242    -2.7533907772
C      3.6241534460     2.8949372399    -1.8873182583
C      3.9836671668     2.7607120529    -0.5340871701
C      5.2169882943     3.2216607251    -0.0792872840
C      2.2943972393     2.3572251339    -2.4068883891
C      1.0689509226     3.0087933412    -1.7766087448
C      0.7042671211     4.3269842095    -2.0983038179
C     -0.4297764145     4.9220242858    -1.5400281623
C     -1.2343700016     4.2225491453    -0.6174909571
C     -0.8575730634     2.9043747212    -0.2937615208
C      0.2689774264     2.3064906035    -0.8606457887
N     -2.4089280688     4.7335645426    -0.0320359454
C     -2.8586668122     6.0300288344    -0.0514314351
O     -2.3300601286     6.9841862144    -0.6175035187
O     -4.0073261620     6.0988680813     0.6873744869
C     -4.7318106278     7.3646168330     0.6839912880
C     -5.8344040300     7.3504747440    -0.3762952314
C     -6.8399752612     8.4959963591    -0.1614038462
C     -8.0015204113     8.5083244780    -1.1757164882
C     -8.8607000802     7.2175079392    -1.2073467242
C     -9.5099609916     6.9234825397     0.1340827337
O    -10.4835781238     7.5157622097     0.5832157687
O     -8.8579202479     5.9374445846     0.7987352334
C     -9.3536454988     5.5725987198     2.1300844910
C     -8.2144253965     4.9188976090     2.9048056145
C     -7.6838755604     3.6124925969     2.2899835637
C     -6.5554392402     2.9901484396     3.1302913684
C     -6.0168916921     1.6641981076     2.5549162863
C     -5.1865164166     1.8533018546     1.2968125899
O     -4.2572344468     2.6510656222     1.1992396700
O     -5.5785170239     1.0277351637     0.3030309502
C     -4.8230128439     1.0683207134    -0.9584788584
C     -3.6619139397     0.0712814923    -0.9788383569
C     -4.0385436707    -1.4114486498    -1.1653022015
C     -4.7950758131    -2.0501101825     0.0126564415
C     -4.9972215342    -3.5571759752    -0.2036841078
C     -5.8613902010    -4.2253278643     0.8587053306
O     -6.7059088884    -3.6445608653     1.5270186732
O     -5.6931819978    -5.5579201447     1.0212779364
H     -7.3039791273   -12.1680497987    -1.5112658080
H     -7.6960147862   -10.0969960484    -2.5614206217
H     -6.5351508594    -9.9980927731    -1.2005459252
H     -5.8088323728   -10.4235765330    -4.1650389758
H     -4.6355547870   -10.3119534850    -2.8410773264
H     -6.6162132766    -8.0421824916    -3.5564666416
H     -4.9939120344    -8.1589173924    -4.2500648011
H     -5.5868769821    -7.8792537580    -1.2312202624
H     -5.1298438529    -6.5523142914    -2.3408228009
H     -1.4300780180    -8.4648558752    -1.7269180336
H     -1.8784404050    -6.5057446953     1.4405178732
H     -0.0053689856    -6.1045360756     3.0080662113
H      2.6844500216    -8.1508391970     0.3112321487
H      0.8124631443    -8.5451904843    -1.2417941404
H      3.1516251667    -7.8045808085     2.9406018419
H      2.2164848173    -6.5249863338     3.7207229712
H      5.3560474929    -7.1176777106     2.6047130068
H      7.0418121964    -5.4294193340     1.9347527078
H      3.8859020694    -2.5939712413     1.1696500095
H      2.2010967026    -4.2644279593     1.8283369790
H      6.0749997281    -2.0042812946     0.7659880768
H     10.0960409544    -1.6087154420     1.8963616688
H     10.2773812323    -2.2316472509     0.2250917416
H      9.4315594828     0.6527437315     0.9328599998
H      9.8204032458     0.0344358360    -0.7094244946
H     11.6692620505     1.3285945183    -1.1221243572
H     13.0819357119     1.2052805274    -0.0261433253
H     11.8948111660     2.5593451562     1.7083211121
H     10.5003524528     2.7889842973     0.6161417149
H     11.1904741552     3.6063394718    -1.7048430619
H     12.5155722714     4.8003744939    -1.6392277187
H     11.1480601264     6.1143286779     0.0866690023
H     10.5240440977     6.0847943228    -1.6044462867
H      7.4852271728     4.1593789522     0.6043170916
H      6.4631679185     4.4659554601    -2.9891847200
H      4.2766844574     3.6397009733    -3.8118284286
H      3.2991915867     2.2797419710     0.1742960749
H      5.4795750790     3.0950760967     0.9777051297
H      2.2508624368     1.2671285795    -2.2304044540
H      2.2591888021     2.4942464797    -3.5025677999
H      1.3032867393     4.9001879781    -2.8164214271
H     -0.6996326827     5.9441954523    -1.8101197009
H     -1.4666101535     2.3391539972     0.4207317401
H      0.5271618905     1.2760596343    -0.5913283643
H     -3.0095057884     4.0583516662     0.4593554753
H     -4.0192892519     8.1906113908     0.5318216972
H     -5.1621748113     7.4351456089     1.6960429589
H     -6.3529338296     6.3788508472    -0.3083058408
H     -5.3858279625     7.4152059343    -1.3849750820
H     -6.3167996202     9.4684928052    -0.2207571539
H     -7.2452748478     8.4305061712     0.8668148182
H     -7.6048263478     8.6674397933    -2.1946426649
H     -8.6609672372     9.3676464094    -0.9587842025
H     -8.2564711073     6.3517059158    -1.5190937837
H     -9.6744794662     7.3492123396    -1.9398439845
H    -10.2041409512     4.8818491526     1.9903360254
H     -9.7205325422     6.4805946814     2.6342399797
H     -8.5949423086     4.7228637674     3.9254822055
H     -7.3910347112     5.6498036329     3.0140045289
H     -7.3252326097     3.8129015429     1.2629326557
H     -8.5134324039     2.8851039452     2.1953868343
H     -6.9233003088     2.7942994918     4.1544962028
H     -5.7183836491     3.7050443135     3.2270558129
H     -5.3436746191     1.1898569394     3.2930517807
H     -6.8338845659     0.9541547469     2.3503669636
H     -5.5750008023     0.8289637570    -1.7270237441
H     -4.4593235087     2.0962522428    -1.1098703238
H     -3.0560640599     0.2037333497    -0.0638724227
H     -3.0116689055     0.3759492500    -1.8201289292
H     -4.6398163803    -1.5205951155    -2.0890549246
H     -3.1036327583    -1.9773318968    -1.3428357190
H     -5.7752239744    -1.5676692689     0.1536223397
H     -4.2303396273    -1.8884742930     0.9500587691
H     -4.0285075533    -4.0812461876    -0.2755848523
H     -5.5122167766    -3.7374627909    -1.1691264751
H     -4.9363484930    -5.9187740494     0.4778050675
