155
polyurethane PU_conf_117 from PU_conf_117.cosmo (coord_rad bohr -> angstrom)
O     13.8705189048    12.3182068693    -0.0373281339
C     13.3837653709    12.5767009774    -1.3760631518
C     12.7101763764    11.3693533111    -2.0428091697
C     13.6339988490    10.1646322625    -2.3354674495
C     13.7545910897     9.2118054803    -1.1493560470
O     14.6008351179     8.1010234344    -1.5766442508
C     14.8387460707     7.1416972997    -0.6341766748
O     14.4014639937     7.1676083575     0.5126587727
N     15.6351708838     6.1681224251    -1.1886985872
C     16.1243796433     4.9933558730    -0.5848493896
C     16.8446467935     4.0886525676    -1.3901550264
C     17.3791444013     2.9118575888    -0.8653218323
C     17.2183981299     2.5943203767     0.4936679117
C     16.5082807402     3.4957368308     1.3030305708
C     15.9770115277     4.6779539136     0.7799583058
C     17.7764293761     1.2949599716     1.0670738730
C     16.7276009235     0.1898812959     1.1508327272
C     16.4155077298    -0.5972108884     0.0305803286
C     15.4412240367    -1.5972282301     0.0949379961
C     14.7265564415    -1.8322476224     1.2854144385
C     15.0499293649    -1.0453188191     2.4085397554
C     16.0277330459    -0.0524635445     2.3445889232
N     13.7437477482    -2.8301052533     1.4399511685
C     13.1857934529    -3.6288274661     0.4724253302
O     13.4380909576    -3.6179160185    -0.7284442134
O     12.2824550112    -4.4664815386     1.0656472604
C     11.5686332993    -5.3566839467     0.1658066851
C     10.5707883494    -6.1591640364     0.9929547705
O      9.5409227906    -5.3828986388     1.6135242925
C      8.5401930561    -4.9107473498     0.7028436444
C      7.3952630111    -4.3576411560     1.5479870802
O      6.4327003932    -3.7963602235     0.6511009781
C      5.2876715729    -3.2895079266     1.3420255941
C      4.3083225109    -2.7062652145     0.3375054337
O      3.7437179186    -3.7176810555    -0.5418570184
C      2.5783434994    -4.3055613064    -0.1236675390
O      1.9860986848    -4.0285572232     0.9146457264
N      2.2008401304    -5.2331046872    -1.0617462423
C      1.0610013439    -6.0615289593    -1.0582254059
C      0.1857057967    -6.2078269424     0.0359987279
C     -0.9133852438    -7.0669159817    -0.0355668559
C     -1.1702066149    -7.8267532554    -1.1890174927
C     -0.2927054351    -7.6940049182    -2.2773843551
C      0.8011388371    -6.8297881492    -2.2094144686
C     -2.3758614090    -8.7584068288    -1.2627208992
C     -3.7037785035    -8.0159230215    -1.3730362650
C     -4.0590181397    -7.3416821462    -2.5552115527
C     -5.2708723584    -6.6607643648    -2.6466895792
C     -6.1765232839    -6.6127175595    -1.5653072142
C     -5.8172922915    -7.2898650454    -0.3860316751
C     -4.6010279536    -7.9761533974    -0.2956445123
N     -7.3782123575    -5.9007739328    -1.7453242520
C     -8.4239283076    -5.7583485557    -0.8648580240
O     -8.4968065646    -6.2304812720     0.2658475766
O     -9.3924332921    -5.0010950343    -1.4628398532
C    -10.5787447253    -4.7104397596    -0.6627192612
C    -10.4113345497    -3.4229794881     0.1449772307
C    -11.7038689458    -3.0841126052     0.9119018622
C    -11.5877253492    -1.8492056925     1.8279235610
C    -11.4034419408    -0.5335313445     1.0573633642
C    -11.2987546468     0.6845792193     1.9593965370
O    -10.9526017057     0.6727333245     3.1336102370
O    -11.6190160985     1.8180546878     1.2892912992
C    -11.5081134421     3.0750463268     2.0379386819
C    -11.9256711681     4.2130944568     1.1151692536
C    -13.4066054461     4.1775498188     0.7007141617
C    -13.7920287669     5.3620744614    -0.2014964323
C    -15.2399226576     5.2984717486    -0.7121461299
C    -16.2852823022     5.5386092526     0.3661584876
O    -16.1241779384     6.2275874989     1.3646004565
O    -17.4488764448     4.9077337668     0.0646823484
C    -18.5824572950     5.1100329157     0.9751456665
C    -19.4178318647     6.3263929157     0.5724844530
C    -20.0441609262     6.2481794067    -0.8358177253
C    -21.1262678668     5.1655411009    -1.0273577520
C    -22.4041537185     5.4365615050    -0.2232755185
C    -23.4983778989     4.4043713009    -0.4531144930
O    -23.4101750730     3.4187341338    -1.1628767911
O    -24.6711998502     4.6294826108     0.2111285757
H     14.7788066684    11.9778977284    -0.1093248014
H     12.6466967851    13.3926556191    -1.2766521289
H     14.2101295369    12.9468463063    -2.0134033354
H     12.2876338524    11.7342038989    -2.9976283842
H     11.8485364499    11.0484488898    -1.4272901445
H     14.6395750575    10.5180634822    -2.6308641125
H     13.2348930833     9.5949258971    -3.1924208454
H     12.7672573787     8.8157359169    -0.8553584019
H     14.2084428620     9.6891077574    -0.2662478970
H     15.8815687032     6.3122239643    -2.1684900680
H     16.9852198761     4.3132077486    -2.4542411404
H     17.9384915343     2.2363894712    -1.5221691907
H     16.3790471845     3.2853970211     2.3713316338
H     15.4306499080     5.3659714261     1.4270582695
H     18.1869749659     1.4845757766     2.0744700733
H     18.6202945865     0.9536892329     0.4418889039
H     16.9555574453    -0.4448308382    -0.9113629142
H     15.2149938943    -2.1977057808    -0.7876493482
H     14.5171091457    -1.2129907972     3.3521471279
H     16.2555343717     0.5354849905     3.2407191702
H     13.3797517574    -2.9682232481     2.3832612375
H     11.0767605051    -4.7627715325    -0.6216958098
H     12.2817608004    -6.0482465653    -0.3150449105
H     11.0980910287    -6.6723483787     1.8141566116
H     10.1291360008    -6.9285517002     0.3259114021
H      8.1778809829    -5.7401542576     0.0624189425
H      8.9291657528    -4.1086444505     0.0443369359
H      7.7827706497    -3.5834163318     2.2428799475
H      6.9423997018    -5.1692068819     2.1533422527
H      5.5821406612    -2.4778609591     2.0416946377
H      4.8030032792    -4.0916903416     1.9357648255
H      3.4979607876    -2.1904491213     0.8753657303
H      4.8191273724    -2.0018273178    -0.3359543017
H      2.8117572249    -5.3029227115    -1.8763398901
H      0.3674625855    -5.6274197925     0.9419752854
H     -1.5733204445    -7.1544266433     0.8359248335
H     -0.4626238246    -8.2777897607    -3.1888226987
H      1.4689106975    -6.7417167917    -3.0747338872
H     -2.3975029348    -9.4032521928    -0.3661769068
H     -2.2580659125    -9.4327700452    -2.1296628237
H     -3.3871101916    -7.3550112871    -3.4214646632
H     -5.5281428411    -6.1485634613    -3.5814300110
H     -6.5006054694    -7.2752529062     0.4644513367
H     -4.3512781410    -8.4973143251     0.6354960133
H     -7.5010036694    -5.4363455829    -2.6458746031
H    -10.7859729411    -5.5699361369    -0.0049344164
H    -11.3878201702    -4.6149369279    -1.4039512256
H    -10.1375715716    -2.6056365958    -0.5459649825
H     -9.5752404677    -3.5443109154     0.8575090957
H    -11.9888239804    -3.9522347169     1.5354744831
H    -12.5327219888    -2.9350202730     0.1928462518
H    -10.7479700438    -1.9808897305     2.5329220793
H    -12.5008535770    -1.7757631061     2.4459737698
H    -12.2233127233    -0.3703485664     0.3368537241
H    -10.4721863479    -0.5534267669     0.4587710667
H    -10.4650146847     3.1866431715     2.3780061539
H    -12.1574591464     3.0090930143     2.9281391413
H    -11.2776939394     4.2089844799     0.2185486879
H    -11.7103659459     5.1563668598     1.6524669660
H    -14.0361776842     4.1800552857     1.6118016814
H    -13.6191164425     3.2300902475     0.1718920380
H    -13.1188576240     5.3898582207    -1.0781756082
H    -13.6431705768     6.3123591069     0.3430213290
H    -15.4079639677     6.0846253636    -1.4736367606
H    -15.4544139254     4.3377389895    -1.2097411046
H    -19.1538483142     4.1720644087     0.8986634642
H    -18.1976522138     5.2188602399     2.0011338157
H    -18.7839679060     7.2282744081     0.6432481425
H    -20.2008644264     6.4472080804     1.3445213024
H    -20.4745916190     7.2366146479    -1.0835223784
H    -19.2402922877     6.0752751569    -1.5739974130
H    -20.7351014243     4.1673660659    -0.7622327803
H    -21.3887566335     5.1076806729    -2.0978961373
H    -22.8175958554     6.4328282767    -0.4739700712
H    -22.2016694345     5.4624309070     0.8644809912
H    -24.6115405951     5.4488657747     0.7435432509
