155
polyurethane PU_conf_600 from PU_conf_600.cosmo (coord_rad bohr -> angstrom)
O    -11.9585237717    12.2213057867     3.4380847434
C    -11.8461880117    11.3241301928     2.3138331028
C    -10.9919618945    10.0899390489     2.6356168838
C    -10.8906723622     9.0844049522     1.4686801974
C    -10.0736283289     9.6270654409     0.2939468150
O     -9.9929836026     8.6473659708    -0.7854401348
C     -8.9443083405     7.7707556803    -0.7362589679
O     -8.0563220445     7.7820182197     0.1111021271
N     -9.0568180288     6.8990970943    -1.7923132352
C     -8.1928878108     5.8459658708    -2.1506148042
C     -8.5517866764     5.0480633208    -3.2578121056
C     -7.7491717967     3.9944470482    -3.6897210093
C     -6.5409734471     3.6985455596    -3.0332356312
C     -6.1754113322     4.4913381231    -1.9352609759
C     -6.9802848221     5.5509370430    -1.5019281448
C     -5.6625251571     2.5394713250    -3.4934062957
C     -6.2438060145     1.1713392094    -3.1503628752
C     -6.7900210947     0.3470888468    -4.1450096975
C     -7.3321277289    -0.9061081384    -3.8371405285
C     -7.3577195959    -1.3742434892    -2.5103790066
C     -6.7991537142    -0.5422882927    -1.5157971346
C     -6.2597781596     0.7048777798    -1.8234290352
N     -7.8685491149    -2.6254925479    -2.1081669707
C     -8.4945255038    -3.5592486934    -2.8909170991
O     -8.7267701301    -3.4738003698    -4.0937036558
O     -8.8270386326    -4.6417967277    -2.1104043224
C     -9.5463104460    -5.7236733122    -2.7739246887
C    -11.0498419744    -5.7038709917    -2.4860663701
O    -11.4397543289    -6.3244605624    -1.2519676404
C    -11.1021415960    -5.5904417375    -0.0608387982
C    -12.1238936871    -4.4809992678     0.2562980976
O    -11.6527801343    -3.6652651121     1.3441574701
C    -10.7582255479    -2.6322928705     0.9116984556
C     -9.9014395550    -2.1680311933     2.0777408577
O     -9.0377468861    -3.2138948041     2.6083097454
C     -7.8882555051    -3.4743624569     1.9228797176
O     -7.5521011026    -2.9132630152     0.8773516989
N     -7.1864990466    -4.4412341012     2.5887991178
C     -5.9491593693    -5.0270184036     2.2490068797
C     -5.2040658602    -4.7140363117     1.0958068770
C     -3.9866032365    -5.3475128203     0.8362529737
C     -3.4712232376    -6.3202414127     1.7089637563
C     -4.2135953331    -6.6392616580     2.8574623024
C     -5.4294362841    -6.0055746384     3.1175482125
C     -2.1370221997    -7.0027274794     1.4230028470
C     -0.9404972906    -6.0675620355     1.5651004418
C     -0.5251267390    -5.6134916454     2.8298957669
C      0.5618441290    -4.7508422984     2.9518156586
C      1.2760394266    -4.2960522042     1.8226424266
C      0.8602098705    -4.7572656745     0.5605605610
C     -0.2306582165    -5.6255114707     0.4390870084
N      2.3609696990    -3.4244179345     2.0375023977
C      3.2023542345    -2.8648372273     1.1051698239
O      3.1681695757    -3.0323855695    -0.1104678997
O      4.1063501588    -2.0726530752     1.7536325075
C      5.0855585623    -1.4024489136     0.9036595884
C      5.9552779574    -0.5349784833     1.8055662676
C      7.0302617489     0.2142672462     0.9973796608
C      7.9041747906     1.1145664872     1.8873571135
C      8.9686585313     1.8667975778     1.0775630669
C      9.7925885120     2.8398387175     1.9037480362
O      9.4429152393     3.3392515748     2.9647995156
O     10.9713190222     3.1171253541     1.2908165062
C     11.8569840782     4.0906843208     1.9425198079
C     12.8363502499     3.4127034775     2.8998451382
C     13.8215981050     2.4501524916     2.2155396189
C     14.7892108268     1.7937098174     3.2146639575
C     15.7472567189     0.7821436924     2.5667755529
C     16.8153672925     1.4225752725     1.6938453580
O     17.2698977155     2.5495001729     1.8386503190
O     17.2462985534     0.5647445668     0.7359637084
C     18.3344815432     1.0388195269    -0.1227278933
C     18.6928401014    -0.0938729490    -1.0780481164
C     19.8334091576     0.3235947505    -2.0248621880
C     20.3155347298    -0.8070414862    -2.9549164598
C     19.2648397947    -1.3043479503    -3.9798138599
C     18.7731868758    -0.2200219667    -4.9268066759
O     17.6238678227     0.1793549375    -4.9995080853
O     19.7115210734     0.3448655043    -5.7440736731
H    -12.4166335982    11.7396291566     4.1507271702
H    -12.8500427600    11.0045772567     1.9662353603
H    -11.3919587597    11.9285044890     1.5110039628
H    -11.4387056965     9.5745999071     3.5067179195
H     -9.9830757575    10.4176922901     2.9480958018
H    -11.9010362039     8.8093725636     1.1143815691
H    -10.4129990148     8.1567031770     1.8294527439
H     -9.0536097246     9.8959306207     0.6127900716
H    -10.5507634648    10.4998793758    -0.1764441871
H     -9.8754101639     7.0373945971    -2.3860241720
H     -9.4879894655     5.2603663672    -3.7877272325
H     -8.0659387758     3.4016765042    -4.5559462613
H     -5.2349612636     4.2880380555    -1.4106258395
H     -6.6743755634     6.1544924784    -0.6459964317
H     -4.6632300522     2.6402132689    -3.0335299798
H     -5.5117440252     2.6036782189    -4.5858329781
H     -6.7832424480     0.6823858212    -5.1884805883
H     -7.7504054638    -1.5279880688    -4.6298282024
H     -6.8005714745    -0.8893665174    -0.4766681834
H     -5.8358473226     1.3171274072    -1.0185962759
H     -7.7869618930    -2.8481377832    -1.1065452392
H     -9.3840605245    -5.6395712118    -3.8602199133
H     -9.0935871867    -6.6555851206    -2.4013444829
H    -11.5462011038    -6.3004641359    -3.2701275746
H    -11.4296989796    -4.6658880068    -2.5645386219
H    -10.0898108515    -5.1565024513    -0.1394268323
H    -11.0931931906    -6.3269303253     0.7588473807
H    -13.0790641876    -4.9230800600     0.5822667054
H    -12.3247084691    -3.8626606384    -0.6403397287
H    -11.3292700169    -1.7560828256     0.5402710177
H    -10.1086637239    -2.9848864003     0.0905028581
H     -9.2899260991    -1.3089451443     1.7586538671
H    -10.5262975608    -1.8791354743     2.9354021423
H     -7.6218970447    -4.7747006235     3.4499745757
H     -5.5847701357    -3.9626119934     0.4030884969
H     -3.4344628787    -5.0784239338    -0.0721001024
H     -3.8401966765    -7.3968230094     3.5552296307
H     -5.9897385836    -6.2725431554     4.0215500999
H     -2.1497933917    -7.4187398187     0.3998780653
H     -2.0174529483    -7.8612572111     2.1077024712
H     -1.0503142986    -5.9424975595     3.7342793682
H      0.8687562787    -4.4140713031     3.9493311156
H      1.3979691241    -4.4271646659    -0.3295368637
H     -0.5294195244    -5.9691719873    -0.5577951025
H      2.5498086556    -3.1635883289     3.0058125687
H      4.5514217196    -0.7982045284     0.1505845083
H      5.6815557410    -2.1670212957     0.3757075024
H      6.4351591931    -1.1715058547     2.5713591980
H      5.3138046393     0.1893430854     2.3402846849
H      6.5447766612     0.8315712756     0.2171098614
H      7.6691827014    -0.5167060143     0.4649538255
H      8.3976493020     0.5026686776     2.6655945272
H      7.2698917555     1.8445492741     2.4206583190
H      8.4876086053     2.4670947621     0.2795454246
H      9.6541477453     1.1727973553     0.5614438980
H     11.2370440951     4.8341688392     2.4670332092
H     12.3849559680     4.5746282163     1.1051255040
H     12.2665468641     2.8839039324     3.6859970098
H     13.3968330872     4.2196048922     3.4104498131
H     14.3951880914     3.0062307194     1.4483759552
H     13.2600995550     1.6620977778     1.6800578895
H     14.2091345307     1.2700426829     3.9967702806
H     15.3830643278     2.5720296038     3.7278929678
H     16.2947886868     0.2219195143     3.3493764629
H     15.2047651174     0.0279957682     1.9721740311
H     17.9918286148     1.9385232377    -0.6625245575
H     19.1889996258     1.3232451519     0.5145945950
H     17.7920463243    -0.3753434258    -1.6517454555
H     18.9978433973    -0.9810181749    -0.4928258050
H     19.5172767725     1.1981492585    -2.6260174552
H     20.6971232504     0.6647054494    -1.4247862649
H     20.6276080923    -1.6775743854    -2.3507633668
H     21.2259587145    -0.4697836034    -3.4843016410
H     18.3782958596    -1.7152548918    -3.4755193649
H     19.7082223664    -2.1170656261    -4.5848323313
H     20.5868058207    -0.0690979471    -5.5986328149
