155
polyurethane PU_conf_89 from PU_conf_89.cosmo (coord_rad bohr -> angstrom)
O     13.8705985720    12.3181984584    -0.0373194661
C     13.3838472325    12.5766928575    -1.3760553529
C     12.7102499545    11.3693485876    -2.0427988901
C     13.6340636094    10.1646210064    -2.3354575988
C     13.7546593296     9.2117983736    -1.1493431837
O     14.6008880174     8.1010062800    -1.5766362204
C     14.8388064042     7.1416854088    -0.6341653788
O     14.4015423307     7.1676081441     0.5126768041
N     15.6352144372     6.1680999048    -1.1886925572
C     16.1244215141     4.9933328801    -0.5848428379
C     16.8446642999     4.0886155885    -1.3901547815
C     17.3791584980     2.9118187130    -0.8653225930
C     17.2184330602     2.5942932795     0.4936723756
C     16.5083409914     3.4957240161     1.3030411641
C     15.9770749941     4.6779430561     0.7799697999
C     17.7764589495     1.2949301193     1.0670772905
C     16.7276243451     0.1898572846     1.1508367789
C     16.4155442480    -0.5972498758     0.0305913795
C     15.4412538149    -1.5972607908     0.0949483909
C     14.7265668289    -1.8322588510     1.2854172354
C     15.0499268874    -1.0453153990     2.4085361422
C     16.0277369683    -0.0524665077     2.3445858804
N     13.7437507863    -2.8301092067     1.4399539030
C     13.1858053930    -3.6288412171     0.4724312756
O     13.4381185355    -3.6179460311    -0.7284352436
O     12.2824560312    -4.4664840007     1.0656518722
C     11.5686401725    -5.3566929735     0.1658132424
C     10.5707854482    -6.1591623453     0.9929603376
O      9.5409186168    -5.3828877515     1.6135156164
C      8.5401960268    -4.9107423064     0.7028242937
C      7.3952641942    -4.3576208052     1.5479552495
O      6.4327079660    -3.7963477065     0.6510574012
C      5.2876794902    -3.2894789286     1.3419704669
C      4.3083365380    -2.7062471311     0.3374379516
O      3.7437270498    -3.7176739299    -0.5419087062
C      2.5783497141    -4.3055415726    -0.1237097029
O      1.9861067232    -4.0285187631     0.9145994863
N      2.2008410956    -5.2330973521    -1.0617743320
C      1.0609991333    -6.0615172314    -1.0582396305
C      0.1857030920    -6.2077936212     0.0359869355
C     -0.9133910650    -7.0668798445    -0.0355642429
C     -1.1702153578    -7.8267354073    -1.1890022579
C     -0.2927139795    -7.6940083339    -2.2773715055
C      0.8011334905    -6.8297943599    -2.2094160098
C     -2.3758727231    -8.7583868167    -1.2626893140
C     -3.7037892856    -8.0159023960    -1.3730064902
C     -4.0590288323    -7.3416644937    -2.5551835387
C     -5.2708835034    -6.6607478911    -2.6466637069
C     -6.1765351435    -6.6126994157    -1.5652819186
C     -5.8173039582    -7.2898435104    -0.3860045820
C     -4.6010390596    -7.9761306001    -0.2956151894
N     -7.3782249498    -5.9007576529    -1.7453014181
C     -8.4239413421    -5.7583311521    -0.8648358335
O     -8.4968189686    -6.2304608038     0.2658711550
O     -9.3924474218    -5.0010811134    -1.4628199291
C    -10.5787600009    -4.7104267195    -0.6627007710
C    -10.4113532736    -3.4229642282     0.1449928961
C    -11.7038883824    -3.0840993361     0.9119172445
C    -11.5877481678    -1.8491891294     1.8279348608
C    -11.4034700005    -0.5335166232     1.0573703415
C    -11.2987839947     0.6845969805     1.9593995964
O    -10.9526291119     0.6727555271     3.1336127458
O    -11.6190485098     1.8180697058     1.2892912531
C    -11.5081476612     3.0750638502     2.0379347826
C    -11.9257098602     4.2131082779     1.1151628306
C    -13.4066445706     4.1775584462     0.7007098331
C    -13.7920724645     5.3620802642    -0.2015024972
C    -15.2399660459     5.2984715255    -0.7121523459
C    -16.2853270441     5.5386050357     0.3661516857
O    -16.1242257135     6.2275856340     1.3645928124
O    -17.4489178462     4.9077239181     0.0646766491
C    -18.5824994072     5.1100180413     0.9751399223
C    -19.4178794743     6.3263741967     0.5724783251
C    -20.0442073255     6.2481580167    -0.8358242226
C    -21.1263112052     5.1655166912    -1.0273643674
C    -22.4041989936     5.4365351747    -0.2232845645
C    -23.4984212220     4.4043435312    -0.4531261836
O    -23.4102151178     3.4187057371    -1.1628870948
O    -24.6712458663     4.6294546337     0.2111126213
H     14.7788852958    11.9778862704    -0.1093146428
H     12.6467841755    13.3926527491    -1.2766463031
H     14.2102141070    12.9468310874    -2.0133961102
H     12.2877086316    11.7342006066    -2.9976181189
H     11.8486086469    11.0484505968    -1.4272784397
H     14.6396396388    10.5180453098    -2.6308632208
H     13.2349481305     9.5949131028    -3.1924054343
H     12.7673250749     8.8157393041    -0.8553332620
H     14.2085253081     9.6890995465    -0.2662418301
H     15.8815973346     6.3121915296    -2.1684893065
H     16.9852206893     4.3131615999    -2.4542450864
H     17.9384863060     2.2363397191    -1.5221752161
H     16.3791252131     3.2853937682     2.3713462006
H     15.4307328699     5.3659714311     1.4270746163
H     18.1870070913     1.4845436244     2.0744728347
H     18.6203211890     0.9536548802     0.4418908146
H     16.9556099323    -0.4448867041    -0.9113453821
H     15.2150341956    -2.1977500176    -0.7876337384
H     14.5170915534    -1.2129711977     3.3521378847
H     16.2555277344     0.5354932794     3.2407114599
H     13.3797413659    -2.9682126037     2.3832609180
H     11.0767761435    -4.7627866964    -0.6216994030
H     12.2817700743    -6.0482622824    -0.3150251431
H     11.0980800556    -6.6723420933     1.8141702691
H     10.1291353242    -6.9285538716     0.3259198631
H      8.1778834499    -5.7401549010     0.0624072838
H      8.9291758375    -4.1086487933     0.0443103665
H      7.7827717123    -3.5833885418     2.2428398790
H      6.9423947597    -5.1691767980     2.1533188753
H      5.5821504326    -2.4778222894     2.0416275888
H      4.8030053275    -4.0916495015     1.9357208962
H      3.4979770850    -2.1904160120     0.8752872760
H      4.8191480593    -2.0018243330    -0.3360325862
H      2.8117574617    -5.3029307742    -1.8763672416
H      0.3674620764    -5.6273721088     0.9419538080
H     -1.5733267130    -7.1543734611     0.8359289110
H     -0.4626346909    -8.2778076553    -3.1888001367
H      1.4689056697    -6.7417400046    -3.0747369954
H     -2.3975111214    -9.4032221169    -0.3661379703
H     -2.2580827883    -9.4327602054    -2.1296241193
H     -3.3871203779    -7.3549948264    -3.4214362415
H     -5.5281539560    -6.1485492511    -3.5814054028
H     -6.5006174235    -7.2752296528     0.4644781372
H     -4.3512889621    -8.4972887154     0.6355268422
H     -7.5010166811    -5.4363324934    -2.6458533812
H    -10.7859866055    -5.5699220395    -0.0049140006
H    -11.3878352683    -4.6149275133    -1.4039334211
H    -10.1375929590    -2.6056220100    -0.5459511808
H     -9.5752586145    -3.5442917018     0.8575247515
H    -11.9888400952    -3.9522204768     1.5354927204
H    -12.5327423209    -2.9350121289     0.1928616084
H    -10.7479917160    -1.9808680400     2.5329329663
H    -12.5008760206    -1.7757476135     2.4459857382
H    -12.2233428409    -0.3703381565     0.3368620409
H    -10.4722157322    -0.5534113084     0.4587759639
H    -10.4650485422     3.1866642087     2.3779999396
H    -12.1574916474     3.0091115030     2.9281365548
H    -11.2777338594     4.2089978658     0.2185413863
H    -11.7104065815     5.1563827218     1.6524577747
H    -14.0362155982     4.1800637727     1.6117982034
H    -13.6191534766     3.2300972050     0.1718898441
H    -13.1189014549     5.3898652807    -1.0781817582
H    -13.6432176529     6.3123663227     0.3430137522
H    -15.4080101528     6.0846244927    -1.4736430137
H    -15.4544532584     4.3377379071    -1.2097473108
H    -19.1538861089     4.1720468495     0.8986582484
H    -18.1976949721     5.2188476437     2.0011280943
H    -18.7840196003     7.2282585403     0.6432425117
H    -20.2009130245     6.4471858167     1.3445147371
H    -20.4746405551     7.2365919175    -1.0835298693
H    -19.2403376601     6.0752554818    -1.5740031755
H    -20.7351427341     4.1673430209    -0.7622373074
H    -21.3887981418     5.1076542162    -2.0979030771
H    -22.8176416894     6.4328016685    -0.4739793425
H    -22.2017168704     5.4624040581     0.8644723939
H    -24.6115890347     5.4488383066     0.7435268876
