155
polyurethane PU_conf_39 from PU_conf_39.cosmo (coord_rad bohr -> angstrom)
O     15.8368324469     9.9472393357     2.3714691120
C     15.5093392818    10.8112338067     1.2600928738
C     14.3818905283    10.2809272087     0.3646890673
C     14.7192288021     9.0361968778    -0.4813572443
C     14.9138249987     7.7706731737     0.3475950072
O     15.0920105120     6.6696381623    -0.5995846836
C     15.2885374984     5.4381266383    -0.0461824028
O     15.3140200350     5.2095395983     1.1600492143
N     15.4475571778     4.5213480580    -1.0593217752
C     15.6701775798     3.1347380358    -0.9558700459
C     15.7792767867     2.3941247971    -2.1508183574
C     16.0106875547     1.0192165273    -2.1384797089
C     16.1502317405     0.3261481510    -0.9238292383
C     16.0508916185     1.0592171236     0.2689957176
C     15.8205750415     2.4384694095     0.2586322081
C     16.3756624384    -1.1830548801    -0.9033983130
C     15.0695884384    -1.9719227027    -0.8798655518
C     14.4396527679    -2.3642308164    -2.0711981114
C     13.2300683769    -3.0657665401    -2.0578537121
C     12.6002993560    -3.3917062709    -0.8417845886
C     13.2417950909    -3.0023430098     0.3516334028
C     14.4486417258    -2.3042680644     0.3363136783
N     11.3904342841    -4.1058430374    -0.7352925108
C     10.5887511100    -4.5750564014    -1.7467037517
O     10.7720512931    -4.4464727993    -2.9533529588
O      9.5247827272    -5.2305610247    -1.1921856297
C      8.5652551863    -5.7747664083    -2.1399284088
C      7.4771673697    -6.4831381982    -1.3605730803
O      6.6832373751    -5.5207897385    -0.6613770923
C      5.6379620696    -6.1369161606     0.0960922213
C      4.8775753491    -5.0244687126     0.8135216800
O      3.8001931461    -5.6446903113     1.5259004470
C      3.1271033392    -4.7675045383     2.4353422050
C      2.1989940841    -3.7506170456     1.7696173176
O      1.1278275862    -4.3911702513     1.0231782815
C     -0.0115573319    -4.6825491121     1.7266836430
O     -0.1906508059    -4.4153150230     2.9109421923
N     -0.8966227487    -5.3041271884     0.8819005373
C     -2.1954993187    -5.7685467926     1.1683108556
C     -2.8002415353    -5.7183706572     2.4372411629
C     -4.0926189732    -6.2167408656     2.6345652392
C     -4.8224481268    -6.7897451169     1.5824820652
C     -4.2192922775    -6.8482154285     0.3133586309
C     -2.9321745535    -6.3522285222     0.1161050170
C     -6.2370297002    -7.3162523645     1.8027804608
C     -7.3142895424    -6.3823110490     1.2590678308
C     -8.0045861069    -6.6881594146     0.0748029894
C     -8.9800135159    -5.8242249587    -0.4247029609
C     -9.3022669182    -4.6197404528     0.2309698437
C     -8.6137678487    -4.3216623634     1.4236018049
C     -7.6337377696    -5.1847809069     1.9200987729
N    -10.3125323789    -3.8139863549    -0.3286514115
C    -10.7509453216    -2.5802305890     0.0912541289
O    -10.3241029012    -1.9339370868     1.0440893949
O    -11.7600899370    -2.1732605926    -0.7322826104
C    -12.3378743960    -0.8651691773    -0.4318684093
C    -13.4404884481    -0.5944359848    -1.4487056110
C    -12.9354319602    -0.4404611503    -2.8941411401
C    -14.0582874062    -0.1965355916    -3.9222877232
C    -14.7537394196     1.1704654057    -3.8054626935
C    -13.8895007497     2.3367885303    -4.2605613972
O    -13.0039552723     2.2772027162    -5.1036445172
O    -14.2486193404     3.4867830604    -3.6401465397
C    -13.5479241149     4.7049994623    -4.0628264248
C    -14.0754000104     5.8656027969    -3.2287015779
C    -13.7002663633     5.7908651373    -1.7387042302
C    -14.2647880026     6.9715979543    -0.9309081611
C    -13.9440923223     6.8955132917     0.5703267360
C    -12.4815849349     7.1577501815     0.8960748937
O    -11.7333835497     7.8855959999     0.2565436619
O    -12.1026655566     6.5095856777     2.0241196279
C    -10.7301454479     6.7465557361     2.4845640816
C    -10.4990082776     5.8984000953     3.7301931110
C    -10.5452961422     4.3732456829     3.4967128470
C     -9.4124832529     3.7988175029     2.6210828835
C     -8.0309043460     3.8846421094     3.2822179101
C     -6.9158572526     3.2793183199     2.4420121534
O     -7.0464734432     2.7777893446     1.3400267865
O     -5.6685933345     3.3182902529     2.9992139739
H     15.0518142213     9.9042504693     2.9473733005
H     15.2400024879    11.8211873679     1.6288568695
H     16.4442524359    10.9054349583     0.6802960197
H     14.1002874444    11.1005441956    -0.3234440064
H     13.4860633356    10.0873622688     0.9868709702
H     15.6287377144     9.2268339188    -1.0807494798
H     13.8973286424     8.8583112063    -1.1977113349
H     14.0299114724     7.5599009916     0.9748598719
H     15.7957334966     7.8322348155     1.0018032061
H     15.3904283054     4.9032814724    -2.0039522047
H     15.6779708245     2.9115258617    -3.1123631958
H     16.0970950603     0.4820843997    -3.0898316564
H     16.1710486952     0.5500056485     1.2323203991
H     15.7501276437     2.9890459283     1.1980063509
H     16.9807616576    -1.4504772750    -0.0193421479
H     16.9645917900    -1.4773205144    -1.7898390703
H     14.9071888995    -2.1337262608    -3.0354956637
H     12.7593327707    -3.3628113595    -2.9963415799
H     12.7798184282    -3.2528627287     1.3139717199
H     14.9193130720    -2.0270325855     1.2863723723
H     11.0627683113    -4.3065185751     0.2102880371
H      8.1452295240    -4.9568457955    -2.7486186227
H      9.0717386369    -6.4918434341    -2.8066977765
H      7.9246988148    -7.2099850296    -0.6510290336
H      6.8539928321    -7.0490636921    -2.0849116112
H      6.0561245234    -6.8492788002     0.8362479481
H      4.9472753795    -6.6957618240    -0.5695446517
H      4.5105620865    -4.2919302953     0.0669144558
H      5.5509423916    -4.4946030923     1.5172052884
H      3.8622455774    -4.2027046865     3.0470531634
H      2.5454498182    -5.4172362137     3.1090923674
H      1.7714883628    -3.0938697540     2.5444259085
H      2.7279268167    -3.1389568821     1.0242883820
H     -0.5674679997    -5.4327464269    -0.0756437798
H     -2.2520841470    -5.2774893843     3.2712004260
H     -4.5349725500    -6.1667498595     3.6359637385
H     -4.7546456875    -7.2966395273    -0.5317458540
H     -2.4817232614    -6.4122467629    -0.8818741128
H     -6.3995350757    -7.4740964805     2.8837887578
H     -6.3402856377    -8.3056405573     1.3228165159
H     -7.7838942688    -7.6183545099    -0.4603804862
H     -9.5047984028    -6.0875023225    -1.3510195003
H     -8.8486926632    -3.3972217194     1.9535147298
H     -7.1210289716    -4.9207708164     2.8528875189
H    -10.7816937605    -4.1843378308    -1.1556852488
H    -11.5390289341    -0.1049362685    -0.4850073033
H    -12.7337595317    -0.8821163301     0.5972281372
H    -13.9515072452     0.3277037073    -1.1159863372
H    -14.1900306324    -1.4065742279    -1.3918936318
H    -12.3887495628    -1.3560116053    -3.1817804531
H    -12.1959520978     0.3828733190    -2.9406435939
H    -14.8245504505    -0.9869551123    -3.8200226215
H    -13.6444524012    -0.2905638904    -4.9412475906
H    -15.1200661659     1.3754463994    -2.7863962604
H    -15.6497639325     1.1905040387    -4.4559420259
H    -13.7362738367     4.8562200039    -5.1389182715
H    -12.4640031861     4.5537993731    -3.9195576579
H    -15.1740234870     5.9234366486    -3.3453895220
H    -13.6647523906     6.7933778846    -3.6704447092
H    -12.5965984531     5.7664116933    -1.6476138770
H    -14.0738933722     4.8429157894    -1.3095642262
H    -15.3633391542     7.0051054755    -1.0500872514
H    -13.8727460605     7.9236099530    -1.3330701576
H    -14.5171285240     7.6676912964     1.1193987346
H    -14.2399227384     5.9251167636     1.0027621241
H    -10.0382620969     6.4921386450     1.6638977459
H    -10.6173285416     7.8218259668     2.7024808227
H    -11.2514459335     6.1766960539     4.4905355723
H     -9.5209904588     6.2014097447     4.1473856534
H    -10.5343308864     3.8669726656     4.4801805755
H    -11.5140848033     4.1141859762     3.0331336590
H     -9.3778960676     4.3068609747     1.6411086691
H     -9.6324845368     2.7402691773     2.3995184585
H     -8.0364036563     3.3690832900     4.2625268679
H     -7.7474079970     4.9324086817     3.4974922177
H     -5.6992927686     3.7451542481     3.8796882127
