104
ps config_60860 from config_60860.mcos (coord_rad bohr -> angstrom)
C      5.5960572758     0.4694532047     1.4753817226
C      4.0552565268     0.4397825546     1.6605150422
C      3.2095917233     0.8572777699     0.4254606860
H      3.8151272086     1.1557953671     2.4699615614
H      3.7313194767    -0.5511081536     2.0271945490
C      1.7742215772     1.2116933360     0.9095476807
C      0.8397444992     1.8257210208    -0.1591226092
H      1.8599150842     1.9147446605     1.7593879377
H      1.3004867897     0.3018488956     1.3211942116
C     -0.5506194094     2.1905785364     0.4428697926
C     -1.4416297806     1.0252456991     0.9682097418
H     -1.1281331788     2.7407810319    -0.3227694136
H     -0.3850370222     2.9047080709     1.2707897290
C     -1.8535744971     0.0706641348    -0.1799037488
C     -2.7925021217    -1.0952405634     0.2210020371
H     -0.9398291587    -0.3483572281    -0.6390711704
H     -2.3398568881     0.6624872027    -0.9762742431
C     -3.1186275784    -1.9945110282    -1.0081634851
C     -3.9709467421    -1.3386617436    -2.1231189859
H     -3.6376149272    -2.9051324706    -0.6560577185
H     -2.1638380736    -2.3408393159    -1.4427253240
C     -4.0998708144    -2.2898533032    -3.3496353035
C     -2.7870095699    -2.5206247823    -4.1155996752
H     -4.8466367997    -1.8583704419    -4.0419998107
H     -4.5165771470    -3.2572512994    -3.0108878344
H     -2.3521618848    -1.5627430996    -4.4520633663
H     -2.9625590128    -3.1405256436    -5.0119650171
H     -2.0295591414    -3.0378553019    -3.5035762672
C      6.2763896697     0.6186100468     2.8593450219
H      5.8408110678     1.3758233506     0.8864402483
C      6.1959791570    -0.7319660558     0.7432493404
H      7.3744761375     0.6554950251     2.7605170766
H      6.0237578071    -0.2299624469     3.5182355706
H      5.9445972319     1.5467540132     3.3565953434
C      5.9716791602    -2.0489419538     1.1861339725
C      6.5968459030    -3.1344352268     0.5624750268
C      7.4648358858    -2.9291950896    -0.5177885216
C      7.0730798716    -0.5374962850    -0.3384084369
H      6.4042999534    -4.1515649946     0.9248334311
H      5.2995125158    -2.2296423647     2.0336328904
H      2.7633998109     6.3574615157    -2.5209024314
C      2.3871079628     5.4449755974    -2.0449357796
H      1.9004597961     4.4663688910    -3.9153590852
C      1.9033363894     4.3863922937    -2.8215857704
C      2.3838283897     5.3212154407    -0.6499296557
H      2.7600696446     6.1423430714    -0.0278322841
C      1.4248010061     3.2193707115    -2.2124714136
C      1.9058247104     4.1560248452    -0.0390354586
H      1.0503163946     2.3940008215    -2.8301378127
H      1.9115622302     4.0803084912     1.0547755772
C      1.4197372876     3.0844393371    -0.8129948014
C      7.6991001507    -1.6236893003    -0.9635364703
H      7.9545737278    -3.7793266084    -1.0062746862
H      8.3762917330    -1.4463952784    -1.8079387720
H      7.2650231701     0.4829302178    -0.6925308222
H     -5.5956332328     3.3156312106     3.6707180853
C     -4.7124664829     2.9125196174     1.7275470543
C     -4.7685589890     2.8472917195     3.1253141300
H     -5.5008953094     3.4367890926     1.1742192130
C     -3.6584425742     2.3144525452     1.0270885294
H     -3.7820409793     2.1152576594     4.9096121452
C     -3.7528859152     2.1760736898     3.8148592954
H     -3.6325798372     2.3772976493    -0.0673665059
C     -2.6334087272     1.6349910874     1.7134061821
C     -2.6963125670     1.5772685365     3.1169822298
H     -1.9036478803     1.0545642463     3.6663057253
H     -0.8974248743    -4.3438900981     4.1801864000
C     -0.4747578748    -3.3886107833     2.2752986775
C     -1.2703548532    -3.6836628829     3.3891689851
H      0.5301377234    -3.8197250115     2.1916843686
C     -0.9483360965    -2.5436102174     1.2647250668
H     -3.1855326115    -3.3420357136     4.3413312947
C     -2.5492340987    -3.1222784094     3.4752826222
H     -0.3088591533    -2.3254631173     0.4014218189
C     -2.2326313851    -1.9726860132     1.3440191960
C     -3.0259005820    -2.2771097475     2.4650891889
H     -4.0304978937    -1.8436242707     2.5425945709
H     -8.9935312646     0.1474736285    -0.5813424942
C     -7.5184616300    -1.4464890048    -0.6270418828
C     -7.9816784426    -0.1490920130    -0.8797954290
H     -8.1717846544    -2.1724789993    -0.1282213254
C     -6.2259439134    -1.8278960845    -1.0051443270
H     -7.4776716730     1.7832559801    -1.7212610448
C     -7.1330162217     0.7624548703    -1.5171177309
H     -5.8846401306    -2.8489232761    -0.7972880338
C     -5.3620635363    -0.9184874567    -1.6466732145
C     -5.8396616867     0.3805006776    -1.8956746430
H     -5.1822869308     1.1027564949    -2.3949779827
H      3.0644896780    -2.7690573533    -3.6550201676
C      2.6024809371    -2.3841510637    -1.5667496062
C      3.0982895720    -2.0458718429    -2.8324302882
H      2.1777262672    -3.3799319788    -1.3927729074
C      2.6458423461    -1.4595935966    -0.5175607378
H      4.0322374339    -0.4895543259    -4.0136774834
C      3.6383147496    -0.7704137033    -3.0291772904
H      2.2589641359    -1.7468254895     0.4675959112
C      3.1875541000    -0.1739296080    -0.7030883382
C      3.6827771189     0.1545324321    -1.9779089803
H      4.1076919753     1.1514185464    -2.1437573714
H      3.6587077887     1.7847479870     0.0204095023
H      0.6972981536     1.0797700690    -0.9633457298
H     -0.8656223453     0.4379949984     1.7072236755
H     -3.7403931557    -0.6593754623     0.5888722161
H     -3.4510870548    -0.4270401164    -2.4786077784
