104
ps config_23380 from config_23380.mcos (coord_rad bohr -> angstrom)
C      5.9918392598    -0.0082075869     0.3447345398
C      5.0858674931    -0.5855853123     1.4615092708
C      3.5525092310    -0.5158604217     1.1920392848
H      5.3065367650    -0.0513397875     2.4056339072
H      5.3720773294    -1.6395051471     1.6358993266
C      3.0514667557     0.9527413808     1.2781647949
C      1.7725378208     1.2887631846     0.4537783871
H      3.8557259814     1.6127104793     0.9080845044
H      2.8954539439     1.2370705021     2.3345789947
C      0.4955749352     0.6338767927     1.0296083342
C     -0.7884113517     0.8453226608     0.1820831032
H      0.3150720667     1.0293725574     2.0467488844
H      0.6674287508    -0.4486323484     1.1561394362
C     -2.0022313976     0.2849935387     0.9721007637
C     -3.3931975702     0.6038765543     0.3726970046
H     -1.9601190432     0.6800886862     2.0052013072
H     -1.8885597870    -0.8102346865     1.0630107254
C     -4.5267212428    -0.0490682307     1.2154870974
C     -4.6051210868    -1.5974610823     1.1839842489
H     -5.4982258070     0.3611522421     0.8824984587
H     -4.4105442223     0.2705956657     2.2685752214
C     -5.6875743621    -2.0646739921     2.1963906908
C     -5.7646748862    -3.5872146072     2.3785478134
H     -6.6713951197    -1.6709185184     1.8778932810
H     -5.4670696476    -1.5900836090     3.1719220031
H     -6.0588439557    -4.0959967567     1.4448977520
H     -6.5045954868    -3.8555722365     3.1523975441
H     -4.7884539548    -3.9988806292     2.6902424476
C      7.4626792457    -0.0162675450     0.8205431728
H      5.7092509534     1.0484408332     0.1730472106
C      5.8363398844    -0.7426392718    -0.9877103228
H      7.5747197517     0.5864965126     1.7388447465
H      8.1321828473     0.4058005238     0.0519826953
H      7.8039074206    -1.0416847660     1.0435920157
C      6.0891602671    -2.1243032093    -1.0957712832
C      5.9769650444    -2.7809723071    -2.3262145464
C      5.6113592117    -2.0743730786    -3.4793878990
C      5.4702100047    -0.0445817503    -2.1518861172
H      6.1781458214    -3.8574367081    -2.3853101133
H      6.3782508496    -2.6947920424    -0.2049821872
H      1.4392531035     6.7229885558     0.0282053544
C      1.4974968807     5.6320678060     0.1135079494
H      2.0263218939     5.3281398383    -1.9652259290
C      1.8261331503     4.8496012689    -0.9988788009
C      1.2436682673     5.0010790864     1.3380015699
H      0.9860041982     5.6012945835     2.2189880564
C      1.8993903823     3.4548145745    -0.8892381234
C      1.3155681299     3.6076845089     1.4486434055
H      2.1560728538     2.8501790882    -1.7673241559
H      1.1136037298     3.1341215052     2.4168020507
C      1.6440549148     2.8111745608     0.3344398015
C      5.3588209664    -0.7018252680    -3.3843187748
H      5.5240818075    -2.5904275900    -4.4421811187
H      5.0707939999    -0.1338417638    -4.2770581519
H      5.2710635715     1.0321186422    -2.0873731017
H     -0.3612807641    -1.3161953864    -4.8181772548
C     -0.3052651322    -1.6940691983    -2.6785755918
C     -0.4475775608    -0.8863823516    -3.8139426034
H     -0.1060214085    -2.7665432791    -2.7898583665
C     -0.4149328237    -1.1422945053    -1.3973041943
H     -0.8151809914     1.1257168977    -4.5237488666
C     -0.7010794550     0.4790441406    -3.6450982160
H     -0.2994488440    -1.7935259385    -0.5225789512
C     -0.6683993606     0.2308247464    -1.2140199320
C     -0.8098908272     1.0322394311    -2.3623982492
H     -1.0073194308     2.1038187536    -2.2437131906
H     -4.4789095380     5.9394734922    -0.0436435940
C     -3.8433913233     4.3257309765     1.2646038726
C     -4.2503546503     4.8711004280     0.0404849056
H     -3.7530123658     4.9702504912     2.1473448801
C     -3.5494577778     2.9615410142     1.3730002871
H     -4.6755478210     4.4433600849    -2.0400225807
C     -4.3600285346     4.0317070280    -1.0735707153
H     -3.2340129237     2.5558358189     2.3416586416
C     -3.6557830003     2.1081747428     0.2576656893
C     -4.0668468199     2.6660978457    -0.9663514440
H     -4.1546592028     2.0169932280    -1.8457474571
H     -5.5593877201    -3.6671972730    -3.7780607788
C     -6.2199595295    -2.2753552842    -2.2461520312
C     -5.3658105943    -3.2460486293    -2.7850694299
H     -7.0897748915    -1.9325706901    -2.8192788946
C     -5.9729860570    -1.7367821764    -0.9785174010
H     -3.5842554398    -4.4300048308    -2.4439060498
C     -4.2623000198    -3.6700279347    -2.0371279097
H     -6.6557270500    -0.9796269404    -0.5744314001
C     -4.8637703000    -2.1537124344    -0.2167805949
C     -4.0146707167    -3.1300790004    -0.7682064775
H     -3.1485779350    -3.4707375704    -0.1883162103
H      1.1920228713    -4.0964642417     4.5732542615
C      2.1436617338    -2.1521909013     4.3856510406
C      1.6559402126    -3.3703478192     3.8963870982
H      2.0649806451    -1.9202090495     5.4546147168
C      2.7320151477    -1.2231016330     3.5197989536
H      1.3933251594    -4.5950032078     2.1291123163
C      1.7702645411    -3.6461377477     2.5292516972
H      3.1075668284    -0.2766406856     3.9259224277
C      2.8458724513    -1.4866687654     2.1415890685
C      2.3607140766    -2.7178463838     1.6627590297
H      2.4421061996    -2.9441005884     0.5925016243
H      3.3801262453    -0.8758241788     0.1583804839
H      1.9316062170     0.8904303448    -0.5674250206
H     -0.9373907523     1.9345125706     0.0592404043
H     -3.4391030286     0.1810085037    -0.6490151838
H     -3.6383064421    -2.0082470076     1.5345695723
