104
ps config_80830 from config_80830.mcos (coord_rad bohr -> angstrom)
C     -6.3825016146     0.0041087300     0.2910227911
C     -4.9681151029     0.1485276743     0.9110134384
C     -3.7811347790    -0.1338317913    -0.0506190961
H     -4.8822741208    -0.5374798740     1.7753585941
H     -4.8566798201     1.1717153754     1.3171097126
C     -2.4594429965    -0.0422782170     0.7539681059
C     -1.1848431487    -0.5043034968     0.0008909147
H     -2.5672315859    -0.6448321100     1.6761562897
H     -2.3121331414     1.0020233593     1.0889888133
C      0.0562701920    -0.1881357733     0.8747022635
C      1.4331401010    -0.4237863336     0.2012925551
H      0.0086834036    -0.7985308132     1.7965853306
H     -0.0060869619     0.8659867691     1.2061661457
C      2.5484616445    -0.2386289654     1.2653753648
C      3.9706985214    -0.6590508881     0.8227459604
H      2.2712976549    -0.8175149674     2.1671186885
H      2.5637204307     0.8206822716     1.5802892548
C      5.0098464757    -0.3667947834     1.9436046936
C      5.3074893887     1.1279008676     2.2300666922
H      5.9593584542    -0.8740427337     1.6907578056
H      4.6579452921    -0.8371379562     2.8815461100
C      6.2274013549     1.2269134247     3.4783857153
C      6.4775889073     2.6619923911     3.9634467273
H      7.1900765798     0.7288721217     3.2559409365
H      5.7586778682     0.6416536283     4.2927233780
H      7.0136438377     3.2609979181     3.2077926456
H      7.0842750143     2.6673923700     4.8855436418
H      5.5258665570     3.1767522928     4.1845771379
C     -6.6871619741    -1.4532648743    -0.1159999353
H     -6.4123778329     0.6303515185    -0.6223539076
C     -7.4476058294     0.5500905847     1.2446226899
H     -7.7026895929    -1.5425217590    -0.5385844165
H     -6.6186097372    -2.1320611779     0.7516065068
H     -5.9771230429    -1.8119395172    -0.8795994750
C     -7.6677333891    -0.0385457331     2.5055867525
C     -8.6411544878     0.4707996834     3.3725679418
C     -9.4163267015     1.5771654990     3.0014214380
C     -8.2306482212     1.6595799899     0.8818350937
H     -8.7969309325    -0.0019507157     4.3500812740
H     -7.0724726837    -0.9065776858     2.8132413981
H     -1.4531450445    -5.7768927070    -1.4059491488
C     -1.3980722382    -4.7202282081    -1.1212657227
H     -1.2550445478    -4.0044130501    -3.1599091153
C     -1.2872292034    -3.7263195162    -2.0994716869
C     -1.4372679047    -4.3437052385     0.2273914827
H     -1.5237302706    -5.1089174271     1.0080802335
C     -1.2173190102    -2.3745304761    -1.7373176509
C     -1.3673977509    -2.9937505354     0.5888605862
H     -1.1313360739    -1.6049580120    -2.5129977961
H     -1.4001903889    -2.7228928751     1.6509948053
C     -1.2562575210    -1.9835126693    -0.3863457029
C     -9.2050272381     2.1679908699     1.7510522078
H    -10.1785176099     1.9737402629     3.6816459345
H     -9.8046869889     3.0341988472     1.4458680168
H     -8.0712829203     2.1288732991    -0.0969467992
H      2.1592887410     2.7647484370    -4.1760999527
C      1.7791562726     2.6954531632    -2.0374843074
C      2.0156102872     2.1280067543    -3.2960278034
H      1.7374621890     3.7855213748    -1.9266127340
C      1.5951488044     1.8802803933    -0.9151522031
H      2.2484454626     0.2740751280    -4.3902532427
C      2.0642750695     0.7346991355    -3.4120317344
H      1.4120535289     2.3476377512     0.0598995502
C      1.6396823176     0.4765409968    -1.0189080240
C      1.8782107971    -0.0816416943    -2.2885532986
H      1.9159030016    -1.1720286113    -2.3931825197
H      4.4020581735    -5.9253080282    -0.5557589687
C      3.7832560319    -4.5050042243     0.9672752469
C      4.3049005249    -4.8691123581    -0.2805236586
H      3.4701042485    -5.2805916723     1.6766357587
C      3.6571400749    -3.1562336670     1.3191545179
H      5.1078501523    -4.1327430543    -2.1526589252
C      4.6992580871    -3.8643495932    -1.1708020829
H      3.2471439437    -2.8938965359     2.3017004686
C      4.0510512552    -2.1371043308     0.4304265747
C      4.5746142673    -2.5139607238    -0.8194655234
H      4.8859556100    -1.7341863175    -1.5247486297
H      7.4865058517     3.7866770768    -2.0124455994
C      7.6413034796     2.0755883307    -0.6826865928
C      7.0468342686     3.2487492754    -1.1649697130
H      8.5536273846     1.6903902043    -1.1537234122
C      7.0799189863     1.3880703361     0.3989012969
H      5.4067167848     4.6411418700    -0.9138602606
C      5.8839411302     3.7235140536    -0.5491623054
H      7.5626273562     0.4731153842     0.7628208837
C      5.9079960801     1.8547576438     1.0259712961
C      5.3216890035     3.0345879285     0.5336900228
H      4.4114961467     3.4160911189     1.0116930291
H     -3.8699937769     3.1906350058    -4.3837475841
C     -3.6686456152     3.0446352161    -2.2252099577
C     -3.8477324543     2.5249034961    -3.5137061088
H     -3.5492881744     4.1252120962    -2.0818930736
C     -3.6407379138     2.1937890320    -1.1148931000
H     -4.1379613270     0.7200038670    -4.6752404440
C     -3.9977544606     1.1433135345    -3.6733120290
H     -3.5023698640     2.6225449248    -0.1151460747
C     -3.7906546945     0.8009495454    -1.2616995593
C     -3.9694987736     0.2917536865    -2.5609585745
H     -4.0847237292    -0.7897233392    -2.6989498350
H     -3.8721737990    -1.1713966986    -0.4246775077
H     -1.1060975416     0.0846887606    -0.9327349861
H      1.4676236217    -1.4735857037    -0.1463422715
H      4.2511622736    -0.0646563943    -0.0678728883
H      4.3578601451     1.6355278313     2.4891312304
