104
ps config_2670 from config_2670.mcos (coord_rad bohr -> angstrom)
C      5.9310776021    -1.2690569708     0.5191258325
C      4.5700140971    -1.1694915187    -0.2177809013
C      3.5699149043    -0.1281201110     0.3556707355
H      4.0802615628    -2.1619907592    -0.2042869588
H      4.7543464638    -0.9310960793    -1.2823921374
C      2.2369317077    -0.2389558938    -0.4276216835
C      1.0547941737     0.5855191743     0.1452175963
H      1.9415672823    -1.3045637790    -0.4703222966
H      2.4073482846     0.0712705757    -1.4761083397
C     -0.1366410246     0.5038989408    -0.8455285541
C     -1.3436088591     1.4114354752    -0.5099065513
H     -0.4759702970    -0.5466665146    -0.9027176456
H      0.2309013255     0.7550078836    -1.8584997357
C     -2.5132575389     1.1759967802    -1.5124116308
C     -3.2685703711    -0.1796199975    -1.3773466964
H     -2.1082664576     1.2621764586    -2.5380064003
H     -3.2492858233     1.9944463756    -1.4064998681
C     -4.1392989336    -0.1973474863    -0.0952656069
C     -4.9121634397    -1.5198805281     0.1686718854
H     -4.8643438214     0.6356585457    -0.1545883701
H     -3.4988096140     0.0217921452     0.7785574295
C     -3.9564926288    -2.6868678253     0.5207636122
C     -4.6588129727    -4.0499786396     0.6192981457
H     -3.4403393745    -2.4564559704     1.4713895636
H     -3.1652490613    -2.7456954595    -0.2485549846
H     -3.9353240255    -4.8555331034     0.8343875110
H     -5.1691766349    -4.3008893248    -0.3273539778
H     -5.4171951611    -4.0598289833     1.4206905849
C      5.7687963301    -1.8000887742     1.9593935730
H      6.3569787898    -0.2478149746     0.5741652644
C      6.9167069028    -2.1236818475    -0.2809019777
H      5.1362525861    -1.1292733988     2.5642259180
H      6.7465784579    -1.8798723343     2.4647740333
H      5.3000778469    -2.7993491253     1.9651701338
C      6.6612910214    -3.4857531488    -0.5349064813
C      7.5668038847    -4.2580092882    -1.2712918679
C      8.7463054915    -3.6897601608    -1.7698205506
C      8.1030531881    -1.5632895338    -0.7851514618
H      7.3492160679    -5.3167679579    -1.4582769224
H      5.7444098527    -3.9491528310    -0.1514031231
H     -0.2888869190    -1.0156839581     5.1917004212
C     -0.0222643812    -0.6959166061     4.1782327052
H      0.4718267896     1.3290852095     4.7650504511
C      0.4036437515     0.6143125411     3.9359364527
C     -0.1021278269    -1.5928490275     3.1052814998
H     -0.4344217730    -2.6237090355     3.2765866355
C      0.7463483989     1.0240147716     2.6405808660
C      0.2391471557    -1.1839759527     1.8113319201
H      1.0809439984     2.0526107371     2.4633206675
H      0.1702957245    -1.9039601374     0.9870654389
C      0.6706581303     0.1320502646     1.5551338926
C      9.0086586780    -2.3381239546    -1.5219824522
H      9.4541645298    -4.2966025773    -2.3456592186
H      9.9283149548    -1.8791757353    -1.9049332109
H      8.3162017789    -0.5039480314    -0.5954086580
H     -0.1996549170     6.7501560835    -0.5012614832
C     -0.0727311167     4.8816214977    -1.6016310985
C     -0.4191647247     5.6765846916    -0.5019399576
H      0.4207603253     5.3346577123    -2.4699520451
C     -0.3500172215     3.5096306800    -1.6036008377
H     -1.3237330902     5.6881087404     1.4664537624
C     -1.0480979590     5.0799409199     0.5963838668
H     -0.0702477911     2.9062972259    -2.4752568828
C     -0.9823972415     2.8997247543    -0.5030359019
C     -1.3273455490     3.7073478711     0.5955700958
H     -1.8193749139     3.2489497296     1.4619076813
H     -6.1194512277    -1.0711000672    -5.9470759291
C     -5.9067676161     0.1497078826    -4.1631903879
C     -5.5516458601    -0.8945026134    -5.0266620118
H     -6.7575585446     0.7965957356    -4.4091537836
C     -5.1850570050     0.3764203429    -2.9859453116
H     -4.1734353263    -2.5326975167    -5.3606924073
C     -4.4636399556    -1.7095912219    -4.6965765178
H     -5.4811318195     1.1977510896    -2.3225203534
C     -4.0883474705    -0.4388789965    -2.6439149457
C     -3.7401205819    -1.4830901823    -3.5184910864
H     -2.8875321076    -2.1266772265    -3.2692274168
H     -8.7304545539    -0.7078431829     3.9858235819
C     -6.6053840894    -0.7238170194     3.5347235223
C     -7.9625597173    -0.8737553124     3.2218113185
H     -6.3067690349    -0.4375828954     4.5504990307
C     -5.6237040396    -0.9361699944     2.5601421791
H     -9.3821952958    -1.3620754287     1.6603496709
C     -8.3237379711    -1.2393193766     1.9205295999
H     -4.5665595081    -0.8154040583     2.8253372514
C     -5.9769378974    -1.3044088187     1.2473416782
C     -7.3419387228    -1.4520148401     0.9437309442
H     -7.6349101426    -1.7375220126    -0.0740424293
H      5.6690713977     4.9141953296     0.2937738943
C      5.0066666392     3.2207833337    -0.8956639819
C      5.2439017376     3.9043431028     0.3038833526
H      5.2466433753     3.6963831806    -1.8541281044
C      4.4639246775     1.9313080528    -0.8817587139
H      5.1082794006     3.8003186021     2.4629842080
C      4.9298731220     3.2786585564     1.5149600380
H      4.2889950004     1.4137764856    -1.8326061645
C      4.1437534239     1.2899128052     0.3307050331
C      4.3863910438     1.9872760709     1.5283018064
H      4.1409212634     1.5086205049     2.4835956902
H      3.3591920548    -0.3880419074     1.4105160502
H      1.3735302677     1.6435395391     0.2062321402
H     -1.6914635030     1.1578527052     0.5094924604
H     -2.5161268744    -0.9875748452    -1.3098743380
H     -5.4441518460    -1.7897385956    -0.7656161896
