104
ps config_87930 from config_87930.mcos (coord_rad bohr -> angstrom)
C      5.5600772448    -1.0834089725    -2.5392464452
C      5.3196285549     0.3866933560    -2.1137979675
C      4.2981533253     0.6097663868    -0.9614829593
H      4.9798753872     0.9517156260    -3.0026334489
H      6.2878371663     0.8361357429    -1.8248706758
C      2.8617425870     0.2559272742    -1.4159163446
C      1.7663337159     0.3717580817    -0.3218572049
H      2.8504786583    -0.7736951923    -1.8175347149
H      2.5827659371     0.9124768186    -2.2620881085
C      0.3756161513     0.2045693123    -0.9872812383
C     -0.8456986064     0.4685262245    -0.0693724014
H      0.2942109140    -0.8209301782    -1.3954615347
H      0.3201939348     0.8830599980    -1.8598401656
C     -2.1387330390     0.0664953119    -0.8253863591
C     -3.4426708345     0.1110021288     0.0115930468
H     -2.0057789883    -0.9531095765    -1.2342698012
H     -2.2616242640     0.7313545637    -1.7017167090
C     -4.6506567719    -0.1101176925    -0.9404613804
C     -6.0570290693     0.0007285863    -0.2910354760
H     -4.5491664131    -1.1092142722    -1.4048880889
H     -4.5779748565     0.6209702332    -1.7683870195
C     -6.3677538535     1.4501359141     0.1591567571
C     -7.6792857916     1.5836655835     0.9483304109
H     -6.3897692355     2.1081977827    -0.7299691541
H     -5.5337513936     1.8148976328     0.7856919627
H     -7.8407680185     2.6247693577     1.2780618906
H     -7.6653377945     0.9449422824     1.8492717945
H     -8.5514774312     1.2865829399     0.3414447625
C      6.4894052603    -1.1096592172    -3.7755194646
H      4.5911891361    -1.5210997772    -2.8466182354
C      6.1257322945    -1.9609461187    -1.4213946750
H      6.6667411969    -2.1429026006    -4.1191438686
H      7.4679079713    -0.6545435546    -3.5440423780
H      6.0394841839    -0.5448203225    -4.6111854688
C      7.2768929075    -1.5861045749    -0.7012899257
C      7.8146996876    -2.4248322144     0.2814442383
C      7.2182512351    -3.6592444302     0.5684564339
C      5.5370924979    -3.2032497238    -1.1251377487
H      8.7107303830    -2.1098270987     0.8296880386
H      7.7613077580    -0.6253000666    -0.9123716603
H      2.5137658757    -3.1562973486     3.7828243950
C      2.3659897813    -2.4513030802     2.9571253749
H      2.6296611382    -0.6910781260     4.1902807019
C      2.4296597084    -1.0718927922     3.1813141951
C      2.1092872360    -2.9164040339     1.6610908378
H      2.0552098073    -3.9940368546     1.4659463726
C      2.2385654263    -0.1683779742     2.1275877480
C      1.9201183647    -2.0140964005     0.6084318584
H      2.2879021559     0.9100951057     2.3168318511
H      1.7203728738    -2.4017947470    -0.3977507379
C      1.9797990341    -0.6232556559     0.8212211076
C      6.0759834353    -4.0432797945    -0.1421065187
H      7.6404770456    -4.3144376672     1.3387538457
H      5.5959413088    -5.0062151425     0.0699002234
H      4.6428240275    -3.5138176186    -1.6791517121
H     -1.0477810928     5.6369242758     1.6903439982
C     -1.0691373151     4.3156674199    -0.0347675935
C     -1.0058182155     4.6011971830     1.3351857918
H     -1.1615859541     5.1317590247    -0.7613944356
C     -1.0159767024     2.9923377331    -0.4860578940
H     -0.8366251331     3.7502450982     3.3191342055
C     -0.8877318737     3.5435801893     2.2432281707
H     -1.0676005829     2.7925082778    -1.5630302986
C     -0.8979731746     1.9185529893     0.4177997609
C     -0.8345116323     2.2183756909     1.7909474385
H     -0.7425125030     1.3983010583     2.5123135472
H     -3.4613220569    -3.4707636625     4.1348315036
C     -3.2793907792    -3.1921680149     1.9877153179
C     -3.4531645154    -2.7533223157     3.3066597613
H     -3.1501257513    -4.2607889446     1.7784305834
C     -3.2690550344    -2.2756428631     0.9305784142
H     -3.7526021413    -1.0253599907     4.5776650474
C     -3.6160078959    -1.3855882468     3.5508441229
H     -3.1339241198    -2.6413875277    -0.0943185384
C     -3.4318881680    -0.8960322070     1.1631112858
C     -3.6055350545    -0.4680310128     2.4919929600
H     -3.7308830041     0.6018652640     2.6957680261
H     -9.8189862337    -2.0122153682    -3.6961296308
C     -8.3358202163    -0.4610531101    -3.3601427087
C     -9.0663346004    -1.6045379457    -3.0118890447
H     -8.5161667223     0.0302073454    -4.3240654337
C     -7.3748637537     0.0616073437    -2.4871658328
H     -9.3885442203    -3.1124679107    -1.4904112561
C     -8.8231390680    -2.2176586092    -1.7780560118
H     -6.8151389839     0.9590409361    -2.7771988249
C     -7.1224491255    -0.5484434109    -1.2428316898
C     -7.8614700215    -1.6953722405    -0.9029967316
H     -7.6768785005    -2.1826975121     0.0621655290
H      4.8732667088     5.7360555115     0.8305910534
C      4.1887729065     4.4576368016    -0.7870507070
C      4.7470201363     4.7080476285     0.4727742302
H      3.8757731565     5.2947252479    -1.4227401122
C      4.0255575117     3.1449919030    -1.2445464423
H      5.5776780582     3.8048989003     2.2579060473
C      5.1405369897     3.6261330720     1.2679886281
H      3.5873751550     2.9724095112    -2.2347973779
C      4.4178118710     2.0488801790    -0.4518862896
C      4.9782919587     2.3118737116     0.8110194614
H      5.2890667914     1.4708251291     1.4423253614
H      4.5761648832    -0.0611449474    -0.1262000297
H      1.8205871968     1.3908545113     0.1056025439
H     -0.7530263419    -0.1829604473     0.8204426868
H     -3.5190340649     1.1234136256     0.4516185208
H     -6.0639512644    -0.6410894610     0.6128531444
