104
ps config_3800 from config_3800.mcos (coord_rad bohr -> angstrom)
C     -5.6864434158     0.3654347091     0.1622157944
C     -4.1984251830     0.2860672104    -0.2772555018
C     -3.5870404060    -1.1377304920    -0.2361354547
H     -3.5965375136     0.9541610418     0.3616942776
H     -4.1043068377     0.6783534686    -1.3068132676
C     -2.0767864549    -1.1556246498    -0.6253345874
C     -1.0694275285    -0.7505473294     0.4903896826
H     -1.9141084559    -0.5355301849    -1.5261961660
H     -1.8250094143    -2.1920411997    -0.9193300246
C      0.3381123033    -1.2753935326     0.0873368816
C      1.4413755427    -1.1402079790     1.1642247303
H      0.6636108997    -0.7536343289    -0.8311455260
H      0.2412959008    -2.3413562489    -0.1914160569
C      2.7852083822    -1.7567431357     0.6694638886
C      3.5050430122    -1.0453810860    -0.5135211580
H      2.5885920700    -2.8066824538     0.3834247699
H      3.4874715282    -1.7993402094     1.5225212673
C      4.0403888445     0.3454139060    -0.0867456956
C      4.8448250288     1.0973690171    -1.1746423275
H      4.6815572570     0.2137025112     0.8055887762
H      3.1861067846     0.9610212158     0.2459403477
C      3.9904025760     1.4809447431    -2.4204225139
C      2.8713243702     2.5001342931    -2.1681455318
H      3.5593390414     0.5578180789    -2.8510451267
H      4.6751692879     1.8751452558    -3.1942520209
H      3.2705435384     3.4594547276    -1.7967337404
H      2.1410673710     2.1348609441    -1.4264524030
H      2.3165014581     2.7065141240    -3.0994510050
C     -5.8647305181     0.0408405208     1.6608141092
H     -6.2457427939    -0.3892784255    -0.4245840108
C     -6.2835104567     1.7320181213    -0.1829604575
H     -6.9266458967     0.1023526514     1.9557836324
H     -5.2953441230     0.7451649242     2.2912528745
H     -5.5149470892    -0.9784993721     1.8955325811
C     -5.7640036586     2.9167500305     0.3748462785
C     -6.3174177569     4.1612370059     0.0530586818
C     -7.4004616148     4.2518179322    -0.8310026508
C     -7.3708696817     1.8330741304    -1.0679907105
H     -5.8980682026     5.0721169071     0.4978998566
H     -4.9181897480     2.8637077424     1.0704688985
H     -1.0354210907     4.5845682040     1.6506478999
C     -1.0386414214     3.5144258097     1.4152682057
H     -1.6292764066     2.9071488137     3.4081465007
C     -1.3710686052     2.5735527658     2.3957544164
C     -0.7095872415     3.0677193487     0.1291237389
H     -0.4461536658     3.7909385959    -0.6515518596
C     -1.3785588564     1.2049807571     2.0967306305
C     -0.7146005156     1.7006705264    -0.1686158634
H     -1.6431846261     0.4770383297     2.8728547410
H     -0.4576004102     1.3720858828    -1.1829972124
C     -1.0541378109     0.7445380529     0.8074225359
C     -7.9234130170     3.0801858474    -1.3887133259
H     -7.8324781390     5.2273487328    -1.0813829850
H     -8.7719474540     3.1347897405    -2.0816449051
H     -7.7872583267     0.9193123987    -1.5100516969
H      0.2593208995    -3.5346665530     5.9264649746
C      0.3338206088    -3.7560028504     3.7668792730
C      0.4863781535    -3.0533322466     4.9686226757
H     -0.0152395863    -4.7955822838     3.7823982150
C      0.6208407333    -3.1428876948     2.5416861253
H      1.0553228826    -1.1628413265     5.8601243604
C      0.9323556748    -1.7276861897     4.9281064892
H      0.4951000284    -3.7114364584     1.6126240483
C      1.0679310719    -1.8082871540     2.4914866611
C      1.2202333878    -1.1118084807     3.7034429702
H      1.5670428814    -0.0715801485     3.6823216271
H      7.3855063214    -4.3945529240    -2.3929846692
C      6.7286381530    -3.1394046444    -0.7466481918
C      6.6102820439    -3.7173002700    -2.0172775409
H      7.6016939784    -3.3664131201    -0.1228292401
C      5.7415385952    -2.2729005436    -0.2640578985
H      5.3826256273    -3.8611666169    -3.7970317387
C      5.4900444899    -3.4177141206    -2.7997725116
H      5.8535998736    -1.8296002285     0.7326706899
C      4.6105245410    -1.9634236570    -1.0450172581
C      4.5010551220    -2.5504456404    -2.3174206063
H      3.6249202559    -2.3230919882    -2.9369573783
H      7.6041525986     5.4646690820     0.5938239448
C      5.9322482961     4.1308201321     0.9632277985
C      7.0434846409     4.5887699892     0.2483220063
H      5.6181183202     4.6523728840     1.8754087803
C      5.2131772007     3.0076308351     0.5290131323
H      8.3076302921     4.2488513276    -1.4802201397
C      7.4337518613     3.9076350599    -0.9122864549
H      4.3510803304     2.6645785503     1.1104452384
C      5.5974165213     2.3191840602    -0.6356533520
C      6.7194173751     2.7870601600    -1.3480159358
H      7.0381720815     2.2548511939    -2.2528583952
H     -6.2514090541    -4.6643924129    -3.4424014476
C     -5.1797420531    -2.7781358845    -3.3355078820
C     -5.7209167543    -3.9535625328    -2.7989521476
H     -5.2851936598    -2.5677396598    -4.4067169273
C     -4.5040115488    -1.8670270552    -2.5161216503
H     -5.9946229044    -5.1212139312    -0.9943976686
C     -5.5759690710    -4.2062401547    -1.4306839799
H     -4.0899889371    -0.9515022198    -2.9554475760
C     -4.3535076772    -2.1116063492    -1.1370634052
C     -4.8984509343    -3.2951824448    -0.6097470041
H     -4.7881870105    -3.5031248886     0.4615210231
H     -3.6581477925    -1.5263449694     0.7987910220
H     -1.3705903790    -1.2853477705     1.4112356484
H      1.5939464195    -0.0645295078     1.3726250420
H      2.7770252891    -0.9099380632    -1.3353080045
H      5.6205082092     0.3963070858    -1.5403604925
