104
ps config_98320 from config_98320.mcos (coord_rad bohr -> angstrom)
C     -6.2062368257    -1.1092859114     0.5613856253
C     -5.3073034533    -0.1005364767    -0.1994078453
C     -3.7816077012    -0.1899401620     0.1019552175
H     -5.6431084753     0.9268302348     0.0359787598
H     -5.4565568051    -0.2336017378    -1.2876415406
C     -3.0730434626     0.9657954539    -0.6648140872
C     -1.6968994142     1.4347832127    -0.1035084929
H     -3.7491752578     1.8406008055    -0.6320870658
H     -2.9686683689     0.7028139887    -1.7331761507
C     -0.5568027588     0.4226856034    -0.3625431374
C      0.8110819387     0.8029978554     0.2668184289
H     -0.4216488588     0.3022782726    -1.4538288825
H     -0.8591022715    -0.5691688816     0.0137848543
C      1.8766562057    -0.2191734531    -0.2082154100
C      3.3389718873     0.1057541394     0.1914654735
H      1.8145507951    -0.3080766572    -1.3096190595
H      1.6166187947    -1.2169889012     0.1932214685
C      4.2324328481    -1.1144728577    -0.1654158601
C      5.7250875341    -1.0100432230     0.2502052382
H      4.1765730076    -1.2791400395    -1.2581088290
H      3.7914671402    -2.0154119862     0.3026020583
C      5.8932121881    -1.0257020032     1.7900939399
C      7.3341950518    -0.7676600297     2.2567851054
H      5.5335557920    -1.9951779010     2.1835640484
H      5.2314901164    -0.2566760137     2.2280797219
H      7.7015731737     0.2056789160     1.8859707571
H      8.0257095596    -1.5465441825     1.8928301502
H      7.3985598982    -0.7523754811     3.3587551415
C     -6.2153542775    -0.8383998709     2.0808745573
H     -5.7918857278    -2.1226828157     0.3936188780
C     -7.6259469506    -1.1056397799    -0.0103435790
H     -6.8694671710    -1.5547209638     2.6070562509
H     -6.5791818910     0.1801344759     2.3012951986
H     -5.2047534584    -0.9338430206     2.5116397985
C     -8.4277734380     0.0518810943     0.0338802087
C     -9.7244570548     0.0445814915    -0.4926212443
C    -10.2498829614    -1.1167141991    -1.0739727232
C     -8.1624250127    -2.2654964194    -0.5959401365
H    -10.3324641243     0.9565064537    -0.4481612902
H     -8.0349297982     0.9698587609     0.4872076672
H     -0.7050144408     6.4077357579    -2.1289907111
C     -0.8955778063     5.4081710104    -1.7224109299
H     -1.3106003095     6.1179706322     0.2818314697
C     -1.2348001279     5.2429462973    -0.3750604188
C     -0.8023538440     4.2778783432    -2.5443376048
H     -0.5388353666     4.3922797240    -3.6028062432
C     -1.4773734300     3.9647200865     0.1444257652
C     -1.0427069305     2.9998929124    -2.0264746100
H     -1.7413641913     3.8450672893     1.2020990680
H     -0.9649143014     2.1280571779    -2.6868501428
C     -1.3828638336     2.8234716794    -0.6712498751
C     -9.4610296907    -2.2710833269    -1.1222154038
H    -11.2657788003    -1.1205926135    -1.4849012196
H     -9.8589116784    -3.1881941692    -1.5735160467
H     -7.5504137006    -3.1750590485    -0.6378282301
H      0.5989361937     1.1377791158     5.7162323739
C      0.3390531841    -0.1364974605     3.9750259047
C      0.6390877652     1.0684026078     4.6234306202
H      0.0606651288    -1.0203984817     4.5614231465
C      0.3910259290    -0.2228448714     2.5794205526
H      1.2288695333     3.1331700937     4.3454317037
C      0.9909106403     2.1821561573     3.8534868951
H      0.1512290766    -1.1755262826     2.0924432846
C      0.7443140124     0.8910748122     1.7930069827
C      1.0436419446     2.0956252980     2.4558884439
H      1.3215328399     2.9750694784     1.8636912509
H      5.2149654213     4.6958991684    -2.0982374970
C      4.3664761301     2.7251265981    -2.4402915231
C      4.8341120609     3.7759897935    -1.6406831459
H      4.3798374102     2.8199813035    -3.5326750474
C      3.8800464696     1.5509292454    -1.8552330664
H      5.1700373981     4.4470172311     0.3910509833
C      4.8079557158     3.6336143032    -0.2493029723
H      3.5216549891     0.7398997037    -2.5003267406
C      3.8482142711     1.3948778677    -0.4557692580
C      4.3211472070     2.4573192206     0.3360608915
H      4.3029760697     2.3580614936     1.4277023844
H      8.6007573199    -4.9260324840    -2.2384229013
C      7.0375868215    -4.4742170147    -0.7992044595
C      8.0256024497    -4.1409094133    -1.7347679513
H      6.8361534154    -5.5274704399    -0.5687525809
C      6.3027502542    -3.4728251149    -0.1543012911
H      9.0410453406    -2.5154077306    -2.7443805366
C      8.2692434144    -2.7921844643    -2.0157995411
H      5.5351726180    -3.7542114025     0.5767844244
C      6.5402245160    -2.1121181475    -0.4305971838
C      7.5343609587    -1.7885596270    -1.3708334335
H      7.7315064233    -0.7336312850    -1.5974614617
H     -1.9507147153    -5.2127334066    -1.0180710310
C     -2.7589971834    -3.3643104965    -1.8262075134
C     -2.3125932589    -4.2025652250    -0.7963902810
H     -2.7484279201    -3.7171755004    -2.8642895997
C     -3.2196081023    -2.0746243964    -1.5406437950
H     -1.9918177929    -4.3733213468     1.3385700460
C     -2.3368771675    -3.7304158519     0.5201531090
H     -3.5658136311    -1.4362534123    -2.3621582201
C     -3.2436902184    -1.5848038179    -0.2206406218
C     -2.7979957608    -2.4386378228     0.8052838374
H     -2.8054737955    -2.0789449142     1.8412639164
H     -3.6298180293    -0.0063279354     1.1830853577
H     -1.8128485773     1.5465615625     0.9925164322
H      1.0958489495     1.8004809220    -0.1178957551
H      3.3584770522     0.2498238653     1.2884374786
H      6.1127816005    -0.0399492730    -0.1206777010
