104
ps config_40080 from config_40080.mcos (coord_rad bohr -> angstrom)
C      6.0958555526    -0.0214667106    -1.5058653745
C      5.6429960058     0.8896590382    -0.3376133672
C      4.2231456255     0.6153301852     0.2376192385
H      5.6877229028     1.9404261288    -0.6817867646
H      6.3805544536     0.8107301521     0.4823816613
C      3.1281441498     0.9712040684    -0.7957617320
C      1.6636324611     0.6919055950    -0.3497739384
H      3.3200797126     0.4195921790    -1.7339532674
H      3.2156051303     2.0434125090    -1.0526636685
C      0.7064024396     1.3160093220    -1.4075372750
C     -0.7562493720     1.6041954170    -0.9512346276
H      0.6938324880     0.6932837399    -2.3208471501
H      1.1473600517     2.2850353945    -1.7078497294
C     -1.6222948794     0.3273078390    -0.8393505160
C     -3.0688060698     0.5652203347    -0.3274074094
H     -1.1192212311    -0.3975250407    -0.1777895516
H     -1.6772924393    -0.1585654772    -1.8316459842
C     -3.8507388116    -0.7738484352    -0.4301713784
C     -5.3565251905    -0.7134215240    -0.0540553614
H     -3.3503889881    -1.5180121126     0.2174700683
H     -3.7541075594    -1.1538381644    -1.4654874166
C     -6.1699721426     0.1180840463    -1.0770083467
C     -7.6341040325     0.3403030057    -0.6672447663
H     -6.1224465621    -0.3770552388    -2.0653075984
H     -5.6806933051     1.1003854310    -1.2061401094
H     -8.1634336080     0.9662778438    -1.4066404424
H     -7.6979314564     0.8499304665     0.3105170214
H     -8.1825002047    -0.6134135344    -0.5835844978
C      7.4618971472     0.4738476233    -2.0365912802
H      5.3657357349     0.0808235311    -2.3311318384
C      6.1677073581    -1.5042331621    -1.1374667360
H      7.8069144322    -0.1416231313    -2.8846849375
H      8.2320991105     0.4293796767    -1.2473074961
H      7.3877249349     1.5201013723    -2.3825804057
C      6.8819962533    -1.9498839161    -0.0081515067
C      6.9855220309    -3.3145155362     0.2844215717
C      6.3804477702    -4.2683866065    -0.5436855716
C      5.5659597501    -2.4717121647    -1.9618949863
H      7.5458084519    -3.6362175584     1.1705516142
H      7.3657709374    -1.2201442581     0.6520611924
H      0.8647274909    -4.6316229550     0.5795383087
C      1.0261415145    -3.5646286813     0.3898713050
H      0.7527527501    -2.9833649794     2.4576088938
C      0.9632652273    -2.6397688399     1.4376511219
C      1.2995260377    -3.1042009810    -0.9044878912
H      1.3540361183    -3.8134382483    -1.7388808896
C      1.1656780094    -1.2743671116     1.1981260090
C      1.5037085277    -1.7409777550    -1.1435528640
H      1.1101750850    -0.5596066761     2.0277265203
H      1.7144706728    -1.4033338410    -2.1654684949
C      1.4341883791    -0.7993592376    -0.0991350466
C      5.6703973605    -3.8377066459    -1.6695752876
H      6.4620941751    -5.3364857905    -0.3125766145
H      5.1898981056    -4.5707988004    -2.3286281691
H      5.0095448463    -2.1436012204    -2.8484063017
H     -2.8345717189     5.3354154547    -4.3530854055
C     -2.2187379632     3.2676092403    -4.1020015837
C     -2.4250865465     4.5836223980    -3.6690851727
H     -2.4667651564     2.9863883690    -5.1327374217
C     -1.6986707512     2.3048384037    -3.2293324473
H     -2.2586479828     5.9503801111    -1.9965947865
C     -2.1016180632     4.9244226784    -2.3511579665
H     -1.5446249843     1.2801752383    -3.5878907579
C     -1.3715059498     2.6384174579    -1.9005897124
C     -1.5791262557     3.9625512612    -1.4767532580
H     -1.3294174584     4.2392668821    -0.4453371785
H     -3.2739098371     2.6181492376     4.7295313774
C     -2.5613581699     0.9993325275     3.4671198353
C     -3.2270283977     2.2066598349     3.7150621412
H     -2.0811317927     0.4592457579     4.2919051516
C     -2.5013127723     0.4744498068     2.1714270305
H     -4.3559185628     3.8258176429     2.8241742619
C     -3.8313262917     2.8789241388     2.6474458914
H     -1.9753309219    -0.4719127653     1.9986082911
C     -3.1065853533     1.1417542787     1.0887831974
C     -3.7726507484     2.3534286991     1.3498596261
H     -4.2477705956     2.8904630967     0.5205404959
H     -7.2918256895    -5.7777021448     0.5823956094
C     -6.4556970836    -4.3267822285    -0.8013353386
C     -6.9072692116    -4.7598564518     0.4520915517
H     -6.4856374493    -5.0099147363    -1.6589448490
C     -5.9651932944    -3.0269333320    -0.9699149639
H     -7.2141300678    -4.1985417516     2.5217057474
C     -6.8621110434    -3.8746794809     1.5346270230
H     -5.6186359110    -2.7061159088    -1.9597605304
C     -5.9151571766    -2.1284273002     0.1139280182
C     -6.3714876284    -2.5728908991     1.3673916972
H     -6.3394055755    -1.8855912637     2.2216417309
H      3.8087445230     3.2992111720     4.9750334701
C      3.8580743897     3.4623961065     2.8092938405
C      3.8806047259     2.7627318775     4.0222762124
H      3.7685368885     4.5554653108     2.8100619266
C      3.9478573804     2.7783869261     1.5912975408
H      4.0125896565     0.8052446172     4.9404298639
C      3.9954882507     1.3683951705     3.9994167317
H      3.9296596524     3.3470999622     0.6540100752
C      4.0622384388     1.3751396452     1.5577108868
C      4.0854072437     0.6822592452     2.7815636939
H      4.1736136280    -0.4107154603     2.7744421067
H      4.1528406418    -0.4650265430     0.4665031302
H      1.4970520507     1.2265932388     0.6051422947
H     -0.7011442597     2.0706156737     0.0521776388
H     -3.5374087500     1.3036894973    -1.0043621355
H     -5.4396655403    -0.2104671128     0.9304251923
