104
ps config_72240 from config_72240.mcos (coord_rad bohr -> angstrom)
C      5.4585863475     0.3370946691    -2.4835069360
C      4.8966154053     1.5448223294    -1.6927680566
C      3.8521162939     1.2157012224    -0.5873755500
H      4.4385336511     2.2470443849    -2.4150014565
H      5.7404989872     2.0937396929    -1.2351277336
C      2.5279579436     0.7100439239    -1.2084524822
C      1.4339563759     0.2775523636    -0.1952872801
H      2.7428701177    -0.1420200694    -1.8788098271
H      2.1111316329     1.5051391988    -1.8557635812
C      0.1162870425     0.0110425859    -0.9679936365
C     -1.1349657955    -0.2658602688    -0.0950088102
H      0.2670093473    -0.8496419724    -1.6470898477
H     -0.0879087256     0.8795659379    -1.6227132719
C     -2.3066442696    -0.6890759712    -1.0217230857
C     -3.5741087518    -1.2097785479    -0.3023208202
H     -1.9407019539    -1.4734137319    -1.7116422283
H     -2.5790698599     0.1704842110    -1.6607872074
C     -4.6959122302    -1.5477144005    -1.3263922889
C     -5.3290534797    -0.3469602171    -2.0760629651
H     -5.4983751899    -2.1017201901    -0.8048055494
H     -4.2858081747    -2.2486500776    -2.0782137193
C     -6.3005280110    -0.8890990916    -3.1609358510
C     -6.8828559968     0.1924389635    -4.0820405566
H     -7.1187323717    -1.4454075470    -2.6655577799
H     -5.7488035168    -1.6305083307    -3.7702662533
H     -7.5137568099    -0.2564386274    -4.8687104791
H     -6.0792379385     0.7626508612    -4.5807451371
H     -7.5063652259     0.9117606753    -3.5244212401
C      6.3687071043     0.8537667677    -3.6225852040
H      4.6116404532    -0.1966290260    -2.9553478606
C      6.2080894041    -0.6717822246    -1.6115564284
H      5.8030454228     1.5170338476    -4.3007755388
H      6.7719066314     0.0189495928    -4.2205932168
H      7.2211789138     1.4263760350    -3.2181133255
C      7.2416760051    -0.2705535189    -0.7427410421
C      7.9560942673    -1.2117418323     0.0070898313
C      7.6580492294    -2.5766398920    -0.0929669422
C      5.9192948729    -2.0449554134    -1.7043675534
H      8.7554027231    -0.8742698762     0.6778306048
H      7.4932485920     0.7927951943    -0.6516752376
H      2.9585026086    -4.0115294362     2.8265910671
C      2.6544926992    -3.1528235509     2.2176317290
H      2.5253488571    -1.7931204947     3.8977630980
C      2.4111011710    -1.9105652555     2.8132218208
C      2.5023478534    -3.2814142527     0.8312123978
H      2.6880918791    -4.2472804607     0.3465383514
C      2.0200377928    -0.8115553277     2.0370660516
C      2.1134797872    -2.1835740964     0.0555665351
H      1.8295414216     0.1558081295     2.5158525980
H      2.0009011649    -2.3082404652    -1.0281697765
C      1.8642174172    -0.9283251645     0.6432929680
C      6.6350359706    -2.9871456245    -0.9544379257
H      8.2182022453    -3.3120585851     0.4955021855
H      6.3881192677    -4.0518226390    -1.0446868762
H      5.1207085268    -2.3762652667    -2.3793213773
H     -2.4070514064     3.9863041137     3.0913753674
C     -2.1104159659     3.2811592129     1.0572836877
C     -2.1544890639     3.1348983210     2.4495521958
H     -2.3302577271     4.2536784818     0.6010167878
C     -1.7870290746     2.1926870730     0.2395249992
H     -1.9002047447     1.7526926228     4.0966811676
C     -1.8700897694     1.8842102944     3.0081605538
H     -1.7594494641     2.3311869794    -0.8479834481
C     -1.4963883746     0.9294016622     0.7897641416
C     -1.5440799482     0.7946071614     2.1898216193
H     -1.3203106219    -0.1794158649     2.6398863772
H     -2.7282625604    -5.6358836710     2.7822300041
C     -2.5010351886    -4.7371986811     0.8174116223
C     -2.8873795800    -4.7455061266     2.1636318877
H     -2.0365709785    -5.6273615249     0.3762122248
C     -2.7024467833    -3.6000421586     0.0266717954
H     -3.7851496701    -3.5893115061     3.7602453003
C     -3.4786648742    -3.5997713904     2.7071673387
H     -2.3939179363    -3.6162240245    -1.0254429619
C     -3.2960045726    -2.4414541748     0.5642185561
C     -3.6812485906    -2.4610080122     1.9168181670
H     -4.1444117770    -1.5677470632     2.3527164560
H     -7.8552459542     3.2159053667     1.2012208458
C     -7.6851799332     1.1402128050     0.5825172679
C     -7.3450764398     2.4986933383     0.5483642759
H     -8.4675328640     0.7887334653     1.2658443206
C     -7.0335636344     0.2238419186    -0.2501966583
H     -6.0677067928     3.9866938058    -0.3715131762
C     -6.3450422585     2.9264045769    -0.3313373048
H     -7.3167763914    -0.8348532677    -0.2094272679
C     -6.0231063189     0.6416954611    -1.1383675054
C     -5.6924091884     2.0084971736    -1.1647639645
H     -4.9115697486     2.3536397468    -1.8529887366
H      3.2831377335     5.6328851423     2.5726437134
C      2.9094186109     4.7503329255     0.6229765703
C      3.3870629753     4.7445046951     1.9396022271
H      2.4285227774     5.6496906525     0.2196251770
C      3.0401713013     3.6157505141    -0.1860451265
H      4.3761950440     3.5657807868     3.4641896123
C      3.9982466079     3.5874156154     2.4347873377
H      2.6602673595     3.6432239866    -1.2143191860
C      3.6528738823     2.4455772196     0.3028781299
C      4.1303133491     2.4513735025     1.6258163275
H      4.6101778530     1.5492189796     2.0235989838
H      4.2705390651     0.4112229409     0.0474956433
H      1.2596275466     1.1223214219     0.4976022883
H     -0.9053553425    -1.1189087890     0.5710704313
H     -3.9496534388    -0.4124581708     0.3671970478
H     -4.5272323369     0.2015678141    -2.6078127175
