104
ps config_20120 from config_20120.mcos (coord_rad bohr -> angstrom)
C      6.1880270331     0.8721482284     1.7114138240
C      4.7382281302     0.4228552980     2.0346373794
C      3.7279217464     0.4565358860     0.8541372566
H      4.3525615660     1.1167532820     2.8062974087
H      4.7416662424    -0.5783968222     2.5029566416
C      2.2881320458     0.4253402623     1.4361655270
C      1.1431144899     0.6689857355     0.4193027267
H      2.2190801240     1.1846708827     2.2377620145
H      2.1193297448    -0.5514348510     1.9284867337
C     -0.2142969837     0.4395101005     1.1331039144
C     -1.4691830952     0.4580755402     0.2223493955
H     -0.3386328296     1.2104213980     1.9175435463
H     -0.1727679476    -0.5300355965     1.6652652015
C     -2.7355752727     0.4125399715     1.1194126603
C     -4.0826020491     0.6217054290     0.3868894468
H     -2.6334281398     1.1832599946     1.9070232090
H     -2.7569749702    -0.5571386984     1.6491032663
C     -5.2801341344     0.4920935472     1.3738970746
C     -5.5373116239    -0.9244118226     1.9444029606
H     -6.1992912958     0.8438507762     0.8700846352
H     -5.1123651450     1.1916097992     2.2124357988
C     -6.6638978757    -0.8907806174     3.0192725530
C     -6.2873693539    -0.1463601929     4.3108264284
H     -6.9286672730    -1.9343140124     3.2724050547
H     -7.5714401664    -0.4420209468     2.5725990595
H     -7.0991175408    -0.2219541066     5.0550970388
H     -6.1010740574     0.9266302167     4.1378608863
H     -5.3772692527    -0.5776903665     4.7643362496
C      6.8851305908     1.3302354846     3.0169656612
H      6.1191077756     1.7549790053     1.0449451889
C      7.0621843549    -0.1678938233     1.0090044779
H      7.9167669267     1.6673280298     2.8196497098
H      6.9320421225     0.5067826704     3.7504161061
H      6.3323798148     2.1668173383     3.4788997747
C      7.2585296590    -1.4512860984     1.5522519758
C      8.1306421061    -2.3631617446     0.9472150606
C      8.8306706280    -2.0127212627    -0.2145307085
C      7.7734421277     0.1745871329    -0.1546195094
H      8.2652342337    -3.3581648485     1.3885612557
H      6.7231990680    -1.7426988558     2.4639686529
H      1.4592825474     5.6202456964    -1.8695630166
C      1.3943860724     4.6282923462    -1.4086181973
H      1.5947854349     3.5594096430    -3.2812356423
C      1.4699992307     3.4737265938    -2.1949668697
C      1.2343376146     4.4966039941    -0.0232087743
H      1.1725325275     5.3903599027     0.6091442151
C      1.3882457795     2.2045162224    -1.6068505242
C      1.1524433103     3.2289497533     0.5634837886
H      1.4498431300     1.3074195952    -2.2333158438
H      1.0271496682     3.1501526680     1.6500149303
C      1.2288587648     2.0586595564    -0.2166037974
C      8.6466022112    -0.7377314266    -0.7608077494
H      9.5137949884    -2.7269591387    -0.6882276128
H      9.1874731034    -0.4481159862    -1.6699831926
H      7.6371044345     1.1729481183    -0.5884283592
H     -1.3693015392    -3.5503921984    -3.4892382202
C     -1.3656099624    -3.0492768483    -1.3745968680
C     -1.3916029916    -2.7488670823    -2.7424341515
H     -1.3228441355    -4.0936837472    -1.0433208584
C     -1.3932880012    -2.0239162143    -0.4228086541
H     -1.4660132079    -1.1565460022    -4.2078077395
C     -1.4454394343    -1.4088674977    -3.1405838252
H     -1.3714387054    -2.2833297218     0.6425177329
C     -1.4460584452    -0.6710731649    -0.8105500768
C     -1.4719550481    -0.3820852853    -2.1876444330
H     -1.5114048397     0.6640463050    -2.5123555448
H     -4.5192633326     5.4341827441    -2.1572051852
C     -4.0751080994     4.4153743262    -0.2904781935
C     -4.4206620577     4.4696065365    -1.6466554888
H     -3.9024460380     5.3436488580     0.2674097587
C     -3.9470769230     3.1839363338     0.3623679550
H     -4.9070690769     3.2987279342    -3.4029036954
C     -4.6375471182     3.2738198593    -2.3400053120
H     -3.6773479475     3.1653044887     1.4251100976
C     -4.1626089387     1.9745602167    -0.3265584233
C     -4.5107550329     2.0406266636    -1.6877190446
H     -4.6821807532     1.1091548938    -2.2404684726
H     -6.8584048802    -4.6962184286    -1.7748727691
C     -7.2436701370    -2.6963614856    -1.0198960369
C     -6.5868046706    -3.9331268497    -1.0367804475
H     -8.0365451843    -2.4886713818    -1.7486016240
C     -6.8974167597    -1.7187103897    -0.0799541498
H     -5.0521496189    -5.1416673513    -0.0986136655
C     -5.5780564882    -4.1793389298    -0.0989872687
H     -7.4251767195    -0.7578412965    -0.0845972288
C     -5.8825311529    -1.9549449481     0.8679904347
C     -5.2316861773    -3.2013801908     0.8419309505
H     -4.4413045655    -3.4044516396     1.5748344812
H      4.3584492761    -3.4729621659    -2.8862431415
C      3.9111004390    -3.0140750855    -0.8096274946
C      4.2395086327    -2.6871659980    -2.1316790402
H      3.7720576337    -4.0631221750    -0.5222167815
C      3.7578625274    -2.0089210147     0.1513043010
H      4.6698277868    -1.0689226978    -3.5052576380
C      4.4125382651    -1.3418517913    -2.4745163672
H      3.5024174373    -2.2873330026     1.1810207622
C      3.9307710233    -0.6518187167    -0.1802233443
C      4.2590489141    -0.3364238520    -1.5110300510
H      4.3937828054     0.7147206136    -1.7916901516
H      3.8605180016     1.4270131091     0.3367729317
H      1.2372596954    -0.0791196745    -0.3907058067
H     -1.4789790736     1.4171726961    -0.3291554821
H     -4.1876674478    -0.1654081761    -0.3839912963
H     -4.6179476280    -1.2734128808     2.4551309165
