104
ps config_29730 from config_29730.mcos (coord_rad bohr -> angstrom)
C      5.6523838366    -0.0675933658    -0.0923005438
C      4.2418641497    -0.0818732105     0.5525721038
C      3.1938256331     0.8544520508    -0.1094376535
H      4.3300634052     0.1995613161     1.6194178286
H      3.8499608519    -1.1161930596     0.5385942763
C      1.8866833123     0.7965005748     0.7259258880
C      0.7847322934     1.8004286125     0.3109378223
H      2.1465398705     0.9671679216     1.7881864005
H      1.4767820642    -0.2287961180     0.6793298805
C     -0.4569946076     1.6966942253     1.2463690119
C     -1.2812328169     0.3748923416     1.2079099295
H     -1.1430178057     2.5314715577     1.0117651824
H     -0.1144351353     1.8673833815     2.2838464272
C     -1.9635692077     0.1804161141    -0.1690837636
C     -2.8432144323    -1.0878926713    -0.3068528318
H     -1.1860621081     0.1617034794    -0.9543635939
H     -2.5826052359     1.0699550833    -0.3851023380
C     -3.4822562056    -1.1683465665    -1.7250278086
C     -4.5500426037    -0.0940297553    -2.0490533795
H     -3.9349982176    -2.1684040296    -1.8571123237
H     -2.6709308162    -1.1049371095    -2.4720726775
C     -5.0032533526    -0.1974348289    -3.5355954943
C     -3.9199300921     0.1827814603    -4.5581126258
H     -5.8760979513     0.4671585125    -3.6756037272
H     -5.3644151721    -1.2252809148    -3.7290968072
H     -3.5415298111     1.2035485615    -4.3716681789
H     -4.3269741681     0.1599699398    -5.5839556871
H     -3.0588016947    -0.5054471928    -4.5325498573
C      6.3530854735     1.2966150164     0.0838297613
H      5.5249748458    -0.2520518924    -1.1771716371
C      6.5115508518    -1.2078118515     0.4587400720
H      6.4639073149     1.5522983890     1.1517902540
H      5.7798708607     2.1062821247    -0.3977215181
H      7.3589945197     1.2865090598    -0.3698825820
C      6.8398904920    -1.2776412085     1.8270890323
C      7.6249504917    -2.3253449819     2.3217357498
C      8.0999740216    -3.3255668448     1.4635260818
C      6.9935350537    -2.2159565754    -0.3939465769
H      7.8690799496    -2.3615323444     3.3905404617
H      6.4793647876    -0.5029922094     2.5143905479
H      2.3716619952     7.0246961769     0.3386262998
C      2.0624118821     5.9734761424     0.3317446293
H      1.2426663787     6.0511387639    -1.6719954389
C      1.4304467492     5.4264581403    -0.7903432205
C      2.2946465446     5.1576680070     1.4462019060
H      2.7893582022     5.5721378517     2.3329452905
C      1.0372718007     4.0820338182    -0.7991740170
C      1.9029095655     3.8139131061     1.4395706565
H      0.5444809325     3.6623817085    -1.6846836933
H      2.0941428424     3.1928248116     2.3227417912
C      1.2682030324     3.2543235668     0.3136010152
C      7.7796813533    -3.2640091792     0.1030910448
H      8.7148852143    -4.1447682967     1.8530106899
H      8.1449023859    -4.0392644387    -0.5814914638
H      6.7466937791    -2.1754593895    -1.4621718892
H     -4.7120247226     0.5014661970     5.4531974109
C     -4.2277762213     1.3217294842     3.5009363925
C     -4.0303917501     0.4710201292     4.5957135585
H     -5.0693554068     2.0248737670     3.5013093313
C     -3.3600382945     1.2841653913     2.4033353701
H     -2.7813447616    -1.0908754553     5.4280852621
C     -2.9498243179    -0.4176239466     4.5787344543
H     -3.5318532874     1.9590101343     1.5562668791
C     -2.2713471374     0.3911561259     2.3770444701
C     -2.0788402508    -0.4565122729     3.4823516161
H     -1.2338054542    -1.1557490010     3.4789629706
H     -0.2560826854    -5.8071814386     0.6165178251
C     -0.2511494636    -3.9336041876    -0.4833697905
C     -0.7663724460    -4.8541816564     0.4375198368
H      0.6704126914    -4.1657038106    -1.0305819814
C     -0.9003433978    -2.7147733099    -0.7125562453
H     -2.3606928470    -5.2468494687     1.8499808297
C     -1.9436270635    -4.5377860801     1.1243848057
H     -0.4799991361    -2.0085813201    -1.4382279127
C     -2.0845872254    -2.3876729612    -0.0251293356
C     -2.5961627240    -3.3195307387     0.8960590263
H     -3.5193710970    -3.0828175099     1.4387933641
H     -9.0066547572    -0.2733131541     1.1002114067
C     -7.6299246665    -1.4040248611    -0.1425169575
C     -8.1058884649    -0.2416029331     0.4769404912
H     -8.1617779442    -2.3532553948    -0.0053148455
C     -6.4782862738    -1.3676023220    -0.9372202674
H     -7.7699197711     1.8793299528     0.7687001965
C     -7.4133595753     0.9595838475     0.2897062442
H     -6.1239709768    -2.2898838370    -1.4123870780
C     -5.7718527678    -0.1643603828    -1.1317883648
C     -6.2612689574     0.9960013112    -0.5059515082
H     -5.7255835029     1.9427136994    -0.6465266567
H      2.4776052719    -0.3452962747    -5.3888497992
C      2.3050060944    -1.0464751385    -3.3397077226
C      2.6149910164    -0.1045006485    -4.3288462446
H      1.9209305629    -2.0331424734    -3.6247083495
C      2.4812031665    -0.7397248825    -1.9858774638
H      3.3524249278     1.8968311618    -4.7038101110
C      3.1045271653     1.1475005469    -3.9422251064
H      2.2370124989    -1.4933206872    -1.2280079604
C      2.9738700999     0.5171062426    -1.5848109054
C      3.2824479794     1.4551612023    -2.5869136050
H      3.6659648405     2.4401516888    -2.2961653558
H      3.5694113744     1.8936071595    -0.0559712487
H      0.4753156185     1.5638857571    -0.7245761666
H     -0.5993018403    -0.4798076028     1.3737888479
H     -3.6614649681    -1.0194313109     0.4346934344
H     -4.0956831687     0.9086770018    -1.9222994381
