104
ps config_27430 from config_27430.mcos (coord_rad bohr -> angstrom)
C     -6.3516108492     0.0829073393    -0.2828668874
C     -4.9374594577    -0.0334241367    -0.9093392749
C     -3.7496123569     0.1683411826     0.0716048756
H     -4.8422746840     0.7095258940    -1.7242481528
H     -4.8356228596    -1.0273651667    -1.3846482524
C     -2.4278979487     0.1258267135    -0.7369368753
C     -1.1490367581     0.5127276042     0.0506909372
H     -2.5279392421     0.8000937704    -1.6089561257
H     -2.2918490949    -0.8905551096    -1.1528295884
C      0.0900073952     0.2459692778    -0.8422296296
C      1.4677535251     0.4001650016    -0.1473660173
H      0.0573466707     0.9295498376    -1.7119956902
H      0.0105572038    -0.7766736227    -1.2578676052
C      2.5842853963     0.2807799920    -1.2196217477
C      4.0139802807     0.6202000665    -0.7339531177
H      2.3281200455     0.9440523770    -2.0677880140
H      2.5723719726    -0.7464699740    -1.6270779276
C      5.0577447294     0.3942443723    -1.8672607309
C      5.2939934338    -1.0778796887    -2.2861668544
H      6.0237278485     0.8340328540    -1.5573874484
H      4.7362526170     0.9718592921    -2.7525163501
C      6.2516755488    -1.1565760079    -3.5117801105
C      5.6604726920    -0.5990295814    -4.8170208227
H      6.5243452405    -2.2170536710    -3.6673088505
H      7.1926850186    -0.6291387237    -3.2651059802
H      6.3596092156    -0.7508926714    -5.6576888920
H      5.4526790351     0.4821911781    -4.7556760007
H      4.7151568903    -1.1100089107    -5.0725251580
C     -6.6466449394     1.5150493849     0.2115250092
H     -6.3870099598    -0.5975181664     0.5907122838
C     -7.4199653947    -0.3964372280    -1.2681224494
H     -5.9323529500     1.8238827119     0.9927450000
H     -7.6603861502     1.5846106811     0.6420780609
H     -6.5769238767     2.2438593061    -0.6144368544
C     -7.6300964968     0.2645664449    -2.4944828245
C     -8.6066877892    -0.1844606176    -3.3907430730
C     -9.3950938741    -1.3011473240    -3.0839652899
C     -8.2164456638    -1.5155224727    -0.9697531306
H     -8.7545159518     0.3440536625    -4.3405373473
H     -7.0245776387     1.1418714277    -2.7517125926
H     -1.3542491630     5.6695407295     1.8440811207
C     -1.3113562586     4.6362169433     1.4820978117
H     -1.1891878834     3.7695060223     3.4626780602
C     -1.2190163459     3.5711698476     2.3844093198
C     -1.3476615327     4.3611886903     0.1090202359
H     -1.4196111910     5.1831947385    -0.6132375254
C     -1.1648037540     2.2490433707     1.9233538365
C     -1.2934580096     3.0409099106    -0.3510436952
H     -1.0933689923     1.4230508446     2.6402708668
H     -1.3238067044     2.8494735205    -1.4303621306
C     -1.2014090991     1.9597323995     0.5469609780
C     -9.1940142403    -1.9633797357    -1.8681710932
H    -10.1596784715    -1.6504691304    -3.7870260185
H     -9.8040821216    -2.8385502279    -1.6133221296
H     -8.0649886195    -2.0407010681    -0.0184966280
H      2.1097596587    -3.1519572704     3.9546398207
C      1.7492741348    -2.8995539247     1.8264300875
C      1.9827969957    -2.4421832353     3.1295763949
H      1.6926204967    -3.9758926901     1.6249726402
C      1.5868689531    -1.9911485817     0.7745335786
H      2.2319179961    -0.6894502146     4.3762897641
C      2.0500697350    -1.0642586043     3.3616537573
H      1.4052186715    -2.3728814361    -0.2373636982
C      1.6508794764    -0.6017060334     0.9951429388
C      1.8856862814    -0.1545849792     2.3087160017
H      1.9375347712     0.9226580470     2.5042031921
H      4.5903945497     5.7356852584     1.0895532464
C      3.9328761091     4.4685477322    -0.5480929352
C      4.4639241947     4.7100096469     0.7251695917
H      3.6414806468     5.3103359283    -1.1878149164
C      3.7691371547     3.1588733134    -1.0138204777
H      5.2455027615     3.7937260576     2.5256606692
C      4.8299182480     3.6220503279     1.5252564687
H      3.3525159044     2.9933779997    -2.0145488971
C      4.1341132333     2.0566999214    -0.2165541947
C      4.6676012526     2.3107738607     1.0598044502
H      4.9568115641     1.4650549874     1.6951437981
H      7.3006942830    -4.2871313407     1.6480365103
C      7.4885555523    -2.3992119762     0.5905010261
C      6.8928907906    -3.6363379548     0.8663648941
H      8.3701035961    -2.0783727849     1.1586016308
C      6.9685138914    -1.5645354256    -0.4055051155
H      5.2893452302    -4.9932384544     0.3341352630
C      5.7692010471    -4.0283552649     0.1306764712
H      7.4508340807    -0.6004692983    -0.6050233150
C      5.8364115859    -1.9479405370    -1.1510232921
C      5.2487705269    -3.1934739530    -0.8662786904
H      4.3689666969    -3.5102342762    -1.4395760641
H     -3.8821045303    -3.4676504206     4.1455216816
C     -3.6611788692    -3.1628072331     2.0055996766
C     -3.8504860543    -2.7393424468     3.3274474399
H     -3.5430437742    -4.2301672081     1.7836968907
C     -3.6212592264    -2.2322711860     0.9615609519
H     -4.1461133136    -1.0244828549     4.6169415237
C     -3.9982646069    -1.3728921809     3.5876321984
H     -3.4745769024    -2.5863513744    -0.0658889818
C     -3.7693478761    -0.8536877378     1.2098130598
C     -3.9579153199    -0.4414666542     2.5416953060
H     -4.0711727316     0.6272536616     2.7583886456
H     -3.8329875059     1.1759940103     0.5215812496
H     -1.0810772563    -0.1453933376     0.9378719007
H      1.5209108118     1.4168573756     0.2859569181
H      4.2684566257    -0.0554329646     0.1048799843
H      4.3275048048    -1.5150616602    -2.6065073916
