84
nylon66 config_3620 from config_3620.mcos (coord_rad bohr -> angstrom)
C      0.3067799958     1.4206907825     1.0798181076
C     -0.6821470068     1.2934793430     2.2428064014
C     -1.7090425327     2.4464498560     2.2755340194
H     -0.0806837010     1.3155344832     3.1690329529
H     -1.2034994983     0.3208120783     2.2081091571
C     -2.7267141659     2.3749586986     1.1257615687
H     -1.1698962174     3.4112158736     2.2478315849
H     -2.2454464669     2.4099691565     3.2420742031
C     -3.8091935886     3.4735188271     1.2170905230
H     -3.2155865514     1.3826262406     1.1362744549
H     -2.2096360677     2.4609344405     0.1521549771
C     -4.8145748531     3.3511298230     0.0712095169
H     -3.3401587058     4.4699890474     1.1414035582
H     -4.3194231184     3.4157725360     2.1955098560
O      1.0889725665     2.3907554552     1.0078747903
O     -4.5445726961     3.7374951628    -1.0810855849
N     -5.9910650144     2.7509310619     0.3992555806
C     -7.0707235095     2.4628483365    -0.5481867818
H     -6.1340770244     2.4777854878     1.3699468434
C     -7.3085535083     0.9523440894    -0.7419468492
H     -6.7931009909     2.9418541268    -1.5012038465
H     -7.9974337614     2.9430501996    -0.1847364564
C     -6.1790423531     0.2261951107    -1.4922923221
H     -8.2591037757     0.8277310556    -1.2947823198
H     -7.4663956695     0.4832509791     0.2494484013
C     -6.4025427545    -1.2947373040    -1.5683728345
H     -5.2138600756     0.4421519665    -0.9970706953
H     -6.1015451106     0.6380261747    -2.5180522459
C     -5.3992327974    -2.0422548349    -2.4697568913
H     -7.4205798141    -1.4921127761    -1.9567708874
H     -6.3823616107    -1.7194498497    -0.5463130426
C     -3.9344251299    -2.0063568356    -2.0058170433
H     -5.4286025031    -1.6115531318    -3.4879839830
H     -5.7156898044    -3.0976887022    -2.5773744914
N     -3.7511831693    -2.7051756195    -0.7272186044
H     -3.5761850512    -0.9736877532    -1.8690728330
H     -3.2900689528    -2.4703508381    -2.7769893394
H      5.4704192961    -1.3952680472    -1.3310023346
H      0.4787674002     0.4616789847    -1.9261103603
H      2.5308725672    -0.9577049145     0.9744494300
H     -1.6588275766    -3.6897798044     1.4346215693
H      6.0129599441     1.6455990677    -1.3650037836
H      4.8137143305    -0.2054945546     0.8150632149
H      2.4146291862    -0.9510899804    -2.1148295095
C     -3.7304737348    -4.3350421257     1.6667952707
C      9.2781317064    -0.4557194963     0.8541574836
C     -2.6722677418    -3.2467878072     1.4264756607
C     -2.7565632549    -2.4199080965     0.1420165241
C      5.1180248629    -0.3461811823    -1.3275416736
C      3.0167304216    -1.0771925262    -0.0123882798
C      1.1158640534     0.3750589036    -1.0255298736
C      1.9474326142    -0.9202469132    -1.1131413513
C      4.2117945171    -0.1049691644    -0.1082901887
C      8.3728409517    -0.4376415964    -0.3810457794
C      6.3412432309     0.5908442916    -1.3914551735
N      0.2651712269     0.4196427521     0.1655706155
N      7.2980163499     0.3938447772    -0.2980827386
O      8.6212046058    -1.1079460858    -1.4005673005
O     -1.9272617280    -1.5100401299    -0.0804417334
H      7.1420815302     0.8975398866     0.5720054508
H      3.3998760358    -2.1153202091    -0.0350889443
H      1.7625368231     1.2664411837    -0.9908251324
H      4.5473007263    -0.2032585138    -2.2641626556
H      6.8860750362     0.4287357111    -2.3355910556
H      1.2578533695    -1.7845759626    -1.0759839092
H      3.8517333380     0.9425257947    -0.1200312042
H     -2.6799252460    -2.5147210563     2.2550948013
H     -0.4662159342    -0.2995313482     0.2495117618
C     10.2363870617     0.7597384288     0.9315848602
H      9.8605307631    -1.3903823178     0.8085371057
H      8.6577667438    -0.4892157107     1.7684451076
H     -4.3665311463    -3.4904916509    -0.5222575928
C     -3.5014897139    -5.0680078445     2.9990691893
H     -3.7082373982    -5.0711322695     0.8409652044
H     -4.7400868885    -3.8832639179     1.6682125176
H     -2.5127985285    -5.5592493383     3.0176673535
H     -4.2674498648    -5.8446140488     3.1620391654
H     -3.5448700194    -4.3665505567     3.8506711194
C     11.2292812167     0.8463544567    -0.2364831214
H     10.7908959114     0.6886657875     1.8849222820
H      9.6435696728     1.6909570331     0.9914923635
H     11.8443884922    -0.0682396290    -0.3037126320
H     11.9120119087     1.7038942767    -0.1103937965
H     10.7118323378     0.9697779663    -1.2034824987
