84
nylon66 config_37470 from config_37470.mcos (coord_rad bohr -> angstrom)
C     -0.9064497775    -1.7744908358     0.2376956497
C     -0.2970806963    -2.8255515437    -0.6920411450
C      1.0664438585    -3.3369906151    -0.1851458169
H     -0.2022003201    -2.4371513322    -1.7216099469
H     -1.0113172643    -3.6695457433    -0.7263141158
C      1.6026141296    -4.4973888100    -1.0394324823
H      0.9569284333    -3.6651515983     0.8642419138
H      1.7939281992    -2.5020798576    -0.1856070098
C      2.9413578375    -5.0634459025    -0.5332136599
H      1.7326776132    -4.1675311326    -2.0860326555
H      0.8570614441    -5.3140747908    -1.0526454958
C      4.1235951991    -4.1138818014    -0.7628005693
H      3.1808574406    -5.9891229871    -1.0895872769
H      2.8657655846    -5.3435359906     0.5326200651
O     -1.1586919243    -2.0300761868     1.4297068344
O      4.2840049111    -3.5182235534    -1.8433409911
N      4.9888399302    -4.0050529680     0.2812252952
C      6.2425222606    -3.2465260157     0.2414826769
H      4.7863500854    -4.5351461025     1.1267824514
C      6.2836069310    -2.0841082978     1.2506579611
H      6.3519441172    -2.8718350329    -0.7892019552
H      7.0799699801    -3.9406570490     0.4400633895
C      5.3039694804    -0.9411980394     0.9387557989
H      7.3190925291    -1.6928261637     1.2638317437
H      6.0912025944    -2.4775173365     2.2684104979
C      5.3580338041     0.1865648478     1.9845726781
H      4.2720957048    -1.3391377325     0.8877872924
H      5.5337362253    -0.5398386459    -0.0670859429
C      4.3616164337     1.3345172179     1.7321505526
H      6.3854929046     0.5973414624     2.0360517973
H      5.1538868262    -0.2425960216     2.9842405370
C      4.6767035078     2.2102669367     0.5033538943
H      4.3124690820     1.9842148746     2.6268129710
H      3.3432593263     0.9230518410     1.5968985316
N      5.9284304583     2.9564039677     0.6490097423
H      3.8467661271     2.9226507173     0.3362370311
H      4.7812960688     1.6024853127    -0.4086352585
H     -6.3812535821     1.4223872475     0.9923291970
H     -1.8537485637     0.2671099801     1.4299091790
H     -3.8709745612    -0.9307541566    -0.5298555361
H      8.3520018270     3.7658321242     1.2108214387
H     -7.4151144192     2.2604895273    -1.7961567567
H     -6.2087733993    -0.4044218540    -0.7675505360
H     -2.9145610219     1.3084712109    -1.2863367010
C      7.9461785994     5.2579531074    -0.3252274894
C    -10.4688687192    -0.2243835373     0.3637972627
C      8.1604612377     3.7898877262     0.1224243157
C      6.9791548024     2.8742175794    -0.2133119657
C     -6.2125658831     1.6511961077    -0.0771728589
C     -4.2000292966     0.0269153874    -0.0853905928
C     -1.7232277440     0.5824666194     0.3818684051
C     -3.0617909072     1.0539468383    -0.2181185251
C     -5.5178486950     0.4600880725    -0.7598835604
C     -9.4962067413     0.9589112693     0.4013819710
C     -7.5574807989     2.0427478616    -0.7225509863
N     -1.1466767488    -0.5613975018    -0.3293648591
N     -8.5905618203     1.0077944341    -0.6121526326
O     -9.5322824277     1.8088691024     1.3096883370
O      6.9756018494     2.1350431456    -1.2157160753
H     -8.6283609793     0.2852840722    -1.3267017122
H     -4.3864599295    -0.1777192469     0.9872421621
H     -0.9955441296     1.4148959995     0.3680566873
H     -5.5621925064     2.5452510228    -0.1079601200
H     -7.9525430050     2.9519338797    -0.2409499266
H     -3.3309174244     1.9987862049     0.2887305481
H     -5.3216292520     0.7081313458    -1.8221086245
H      9.0441027058     3.3689318083    -0.3843046624
H     -0.8923833350    -0.4304508818    -1.3068195601
C    -11.9392171015     0.2089218413     0.5264345320
H    -10.1840798323    -0.8869118490     1.2024393172
H    -10.3402953037    -0.8062044858    -0.5662388651
H      6.0099412181     3.5844482631     1.4474174094
C      7.7925083771     5.4318547434    -1.8430415270
H      8.8128375169     5.8452859632     0.0289173511
H      7.0628812484     5.6744977546     0.1931694160
H      6.9042624039     4.9012623670    -2.2270834149
H      8.6730049075     5.0359889662    -2.3790694739
H      7.6866144029     6.4975642681    -2.1085897426
C    -12.4769284667     1.0045215537    -0.6727956300
H    -12.0280052114     0.8086822960     1.4493462870
H    -12.5530265655    -0.6971831883     0.6793953666
H    -12.3909935447     0.4228773096    -1.6076788446
H    -11.9213708856     1.9488923908    -0.8138792091
H    -13.5403932732     1.2634355144    -0.5341702325
