84
nylon66 config_88790 from config_88790.mcos (coord_rad bohr -> angstrom)
C      1.3124087301    -1.5094082606     2.7633386062
C      1.5787240359    -0.0149633115     2.9831359660
C      0.2805250100     0.7429432387     3.3364245063
H      2.0820375783     0.4249648188     2.1060432210
H      2.2822092817     0.0529616408     3.8356862008
C      0.4981895515     2.1376284273     3.9550032164
H     -0.2790622395     0.1261366648     4.0615213291
H     -0.3583724678     0.8287468829     2.4384487763
C      1.0897544201     3.2050978909     3.0224362144
H      1.1621866781     2.0399242509     4.8344836115
H     -0.4716096230     2.5073784788     4.3317576439
C      0.1239376288     3.6845894240     1.9261459592
H      2.0267127623     2.8567307863     2.5505228950
H      1.3704859307     4.0960369090     3.6166464280
O      0.7277270469    -2.1870936644     3.6334303061
O     -1.0937930380     3.4329100811     1.9368315272
N      0.7103517630     4.4313131497     0.9516407136
C     -0.0007949173     4.9755683009    -0.2092641951
H      1.7086198397     4.6241150420     1.0239563927
C      0.8381084761     4.8518668870    -1.4932143861
H     -0.2642181458     6.0364767699    -0.0330455067
H     -0.9453722046     4.4138876601    -0.2959596376
C      1.1966872103     3.4016812496    -1.8568446232
H      1.7673225233     5.4452748057    -1.3807003612
H      0.2700518201     5.3259763380    -2.3154308472
C      2.1014346364     3.2875789149    -3.0981294040
H      0.2698520848     2.8206074656    -2.0269178218
H      1.6931352081     2.9338034420    -0.9866080046
C      2.6867229378     1.8730125776    -3.2954930632
H      2.9332273549     4.0161006191    -3.0190281671
H      1.5281945125     3.5790565393    -3.9979174332
C      3.8201551237     1.5826566101    -2.2910895151
H      3.0783943782     1.7625363438    -4.3232338607
H      1.8917470962     1.1122840441    -3.1777895965
N      4.3089201078     0.2035781186    -2.3487640056
H      3.4777534895     1.7496218337    -1.2581797888
H      4.6709354879     2.2611619316    -2.4820174972
H     -3.8432926052    -3.6825000642    -1.4327152941
H      2.6026130143    -3.8467643025     0.9837033885
H     -1.1796193764    -3.9334847335     1.2093488579
H      3.8255885236    -2.8570766873    -1.5806121280
H     -3.2725127330    -1.2461097692    -1.2962860265
H     -1.6300648839    -4.6272234995    -1.1832142880
H      0.7183832389    -4.7453568178    -0.2311609547
C      5.6982155904    -2.4279385501    -0.5557336242
C     -7.3163788016    -1.0454669772    -0.6843721715
C      4.6382718371    -2.1102187854    -1.6338750285
C      4.0041066333    -0.7388819558    -1.4240217668
C     -3.2398163459    -3.3065327769    -0.5862926455
C     -0.8240355385    -3.3281420633     0.3523584612
C      1.6052669578    -3.4423152986     1.2356091253
C      0.6431929713    -3.6782271111     0.0544620025
C     -1.7453618962    -3.5753587635    -0.8565510429
C     -5.8582605839    -1.1985444384    -1.1295115688
C     -3.5582313578    -1.8103910708    -0.3931794022
N      1.7522412502    -2.0276706659     1.5895036288
N     -4.9821240241    -1.5598812520    -0.1548463254
O     -5.5114295418    -1.0099952662    -2.3100523409
O      3.2717745064    -0.4958868644    -0.4394814148
H     -5.3408310328    -1.7062325190     0.7857694021
H     -0.8844034830    -2.2710340643     0.6716645700
H      1.2452421408    -3.9667559384     2.1358734863
H     -3.5672379148    -3.8691239930     0.3091259345
H     -2.9953501320    -1.3951333249     0.4597619667
H      0.9943818585    -3.0986964137    -0.8214038524
H     -1.4091839247    -2.9538817816    -1.7101335822
H      5.0876327744    -2.1843311546    -2.6399696138
H      2.2689130628    -1.4328500480     0.9247689660
C     -7.9344587967     0.2950637457    -1.1290956432
H     -7.4062300493    -1.1652907698     0.4100169837
H     -7.8723732682    -1.8808996588    -1.1492242343
H      4.9046554578    -0.0626761542    -3.1297884659
C      6.2790261586    -3.8404038843    -0.7129165056
H      5.2353542898    -2.3163399383     0.4405714523
H      6.5107995567    -1.6797936717    -0.6131873215
H      5.4896104145    -4.6072935547    -0.6246514075
H      7.0365515019    -4.0463409174     0.0625296239
H      6.7637190533    -3.9680798804    -1.6970381129
C     -7.3337766720     1.5123215124    -0.4095611953
H     -9.0234965682     0.2527620023    -0.9463912290
H     -7.8017371576     0.3969610091    -2.2206043847
H     -7.4501022547     1.4253944341     0.6852452421
H     -7.8276473154     2.4463027560    -0.7273659519
H     -6.2552269944     1.6179232557    -0.6240433614
