84
nylon66 config_61870 from config_61870.mcos (coord_rad bohr -> angstrom)
C     -4.0124360716     2.4373766320    -1.2440026261
C     -2.8383526698     1.5415680793    -0.8456349170
C     -2.1032668934     2.0755929964     0.4014278822
H     -2.1390289991     1.5295143933    -1.7025780162
H     -3.1789317816     0.5051477293    -0.6777977766
C     -0.8379953361     1.2654272560     0.7254570068
H     -2.7876846523     2.0509333833     1.2712244284
H     -1.8394433142     3.1359158564     0.2334170529
C     -0.1105800439     1.7963755104     1.9775735726
H     -0.1504854785     1.2954800289    -0.1415906447
H     -1.0982822035     0.2040539474     0.8889669253
C      1.0812359060     0.9203411853     2.3683581471
H     -0.8087172485     1.7869877362     2.8354463398
H      0.2023667748     2.8439908233     1.8217510291
O     -3.8433360035     3.6266974341    -1.5832421423
O      0.9381497113    -0.2831608484     2.6526858575
N      2.2887007945     1.5471202981     2.3742715672
C      3.5533126165     0.9011738569     2.7351318444
H      2.3141948500     2.5388538603     2.1443439692
C      4.5735031472     0.8872497105     1.5802012621
H      3.3037799926    -0.1251210959     3.0506554186
H      3.9851254918     1.4273757306     3.6062511418
C      4.1523180424     0.0115728256     0.3874382746
H      5.5353993701     0.5357468063     1.9965332862
H      4.7482900796     1.9259157215     1.2359736164
C      5.1035757901     0.0990334770    -0.8236017363
H      3.1386442942     0.3119069218     0.0624892392
H      4.0718678310    -1.0428715963     0.7173017842
C      6.5082598638    -0.4761492872    -0.5674744452
H      5.1922895870     1.1561408348    -1.1427583062
H      4.6466748202    -0.4415971566    -1.6750429074
C      7.3761024199    -0.4413141868    -1.8402571893
H      6.4232694465    -1.5206243658    -0.2106981217
H      7.0258939165     0.0905389397     0.2277943687
N      8.7154581219    -0.9981262544    -1.6383973632
H      7.5043782744     0.5981954870    -2.1845771107
H      6.8841997771    -1.0103102201    -2.6496402336
H     -9.4280283544    -0.2973338486     1.8695303625
H     -6.6080912222     3.4289698987    -0.8136989562
H     -7.1201637043     0.8251176394     0.3397896957
H     10.9425177125    -2.1049126773    -1.2278659945
H     -7.8716435956    -2.1256042546     2.4329289505
H     -8.6011586955    -0.7899671570    -1.0681402745
H     -7.4725543357     0.8457000895    -2.2684302474
C     11.9535438556    -0.5683658866    -0.0460142562
C     -5.5633296114    -3.1589029374    -1.2491446822
C     11.1359893713    -1.0183019172    -1.2730437150
C      9.8250291297    -0.2403888209    -1.4290309826
C     -9.0546164504    -0.9332376342     1.0441801706
C     -8.0496195773     1.1100859454    -0.1841112191
C     -6.4580412040     2.6082883268    -1.5426843808
C     -7.6790163868     1.6787599788    -1.5683473590
C     -8.9674133922    -0.1235632211    -0.2637135540
C     -6.0173432557    -2.1029631954    -0.2401355066
C     -7.7129085863    -1.5441805735     1.5075886260
N     -5.2385512710     1.8636543713    -1.1982620476
N     -7.0991909725    -2.4278854102     0.5112125787
O     -5.4153553435    -1.0133545399    -0.1281146866
O      9.7932812418     1.0033488353    -1.3923134195
H     -7.5279408591    -3.3388066219     0.3585613309
H     -8.5239451668     1.8987529181     0.4306288287
H     -6.3120990014     3.0873167076    -2.5271584921
H     -9.7943651121    -1.7465320317     0.9210522643
H     -6.9749084946    -0.7588037538     1.7300550343
H     -8.5311304866     2.2376384405    -1.9962792658
H     -9.9873332489     0.1799843139    -0.5664689152
H     11.7187926310    -0.8312523209    -2.1942450706
H     -5.3229277650     0.8878429639    -0.8891849751
C     -4.0910954763    -3.5768375753    -1.0488687773
H     -5.6832304977    -2.7032542232    -2.2491594086
H     -6.2208986149    -4.0452538146    -1.2124576251
H      8.8123522005    -2.0107879858    -1.6244880779
C     11.2931691379    -0.9298603821     1.2931312518
H     12.1099773721     0.5229796057    -0.1089218720
H     12.9540182801    -1.0337568975    -0.1067162576
H     11.1240010087    -2.0183256494     1.3730624374
H     10.3152965615    -0.4294937557     1.4101267798
H     11.9254226334    -0.6244009534     2.1441895202
C     -3.8495260716    -4.3613071174     0.2495814124
H     -3.4614123149    -2.6699082030    -1.0683784970
H     -3.7870569078    -4.1888595638    -1.9170077492
H     -4.0912279677    -3.7560460368     1.1414677335
H     -2.7941005529    -4.6706841497     0.3359355721
H     -4.4717854093    -5.2729187963     0.2858850435
