84
nylon66 config_18870 from config_18870.mcos (coord_rad bohr -> angstrom)
C     -4.5979663537    -3.9325289320    -0.3848136042
C     -3.1224099107    -4.1526003660    -0.0483905879
C     -2.2585677274    -2.9235889035    -0.4008816158
H     -2.7841632487    -5.0194755193    -0.6455292589
H     -2.9929593149    -4.4162194339     1.0161865062
C     -0.7617053325    -3.1805979180    -0.1656428721
H     -2.5827804238    -2.0577523043     0.2076661093
H     -2.4353137931    -2.6548060447    -1.4582633852
C      0.1029375104    -1.9508834980    -0.5115401568
H     -0.4362929234    -4.0446746820    -0.7761863971
H     -0.5861787457    -3.4519144665     0.8911306222
C      1.5738294181    -2.1615020057    -0.1484228821
H     -0.2486516912    -1.0819203492     0.0753749350
H     -0.0095688057    -1.6920921960    -1.5791709134
O     -4.9773382373    -3.7378756311    -1.5544897332
O      1.9307150348    -2.3776555892     1.0244567142
N      2.4496768176    -2.1120042309    -1.1872658368
C      3.8982224071    -2.2657654531    -1.0353674740
H      2.0875127369    -1.9090694335    -2.1162204156
C      4.6464639303    -0.9200048275    -0.9916198773
H      4.2687657721    -2.8791523921    -1.8762392668
H      4.0706592131    -2.8273094127    -0.1024163495
C      6.1661623147    -1.1107014378    -0.8537581566
H      4.2613523841    -0.3220810858    -0.1441537606
H      4.4218517746    -0.3479399904    -1.9121980641
C      6.9368048591     0.2206310630    -0.8042167574
H      6.5391816871    -1.7187676798    -1.7015488374
H      6.3818608663    -1.6932061757     0.0635857593
C      8.4566855833     0.0301825680    -0.6677808289
H      6.5647950253     0.8278510860     0.0444569650
H      6.7198106208     0.8039849157    -1.7208676618
C      9.2039234990     1.3761764897    -0.6160760555
H      8.8381502372    -0.5662354614    -1.5186850656
H      8.6856266675    -0.5434873382     0.2501554855
N     10.6559198238     1.2215913048    -0.5058371604
H      8.8723198179     1.9624155803     0.2566808163
H      8.9875436947     1.9655509170    -1.5253054680
H     -7.8191084422     0.5008599792     0.3261960292
H     -7.1765908210    -3.9659893836    -0.4856381439
H     -9.1788974895    -2.3256965329    -0.2018092782
H     13.1027812139     0.2981609525     1.2745292250
H     -9.1563697174     2.0104355592     1.8180414040
H     -8.9963710371    -0.5365706694     2.3112749670
H     -6.8009061476    -1.6025246112     0.2661505486
C     13.6427828692     2.3805821604     0.9578205508
C     -7.9233092636     4.8289779381    -0.8646550354
C     12.8504172726     1.1136948045     0.5712311577
C     11.3392826368     1.3267790958     0.6653177654
C     -8.9200416509     0.4092399562     0.3539188961
C     -8.8482420031    -2.1318977056     0.8375080037
C     -6.8963742760    -3.7454296261     0.5575727375
C     -7.3227674054    -2.3127993158     0.9326682431
C     -9.3492670053    -0.7415026243     1.2814185489
C     -8.1545823469     3.7498866972     0.1939526317
C     -9.5161068429     1.7557950922     0.8074425549
N     -5.4525578315    -3.9612516212     0.6724505256
N     -9.1555408533     2.8688932417    -0.0730286707
O     -7.4736398115     3.7011179426     1.2352846317
O     10.7849691000     1.5963882018     1.7472222395
H     -9.6569147571     2.9600271877    -0.9536903589
H     -9.3381008236    -2.9016951545     1.4645349517
H     -7.4073545370    -4.4757864817     1.2103721946
H     -9.2482638761     0.1941094837    -0.6811130516
H    -10.6183402225     1.6885080698     0.8447602736
H     -6.9860098777    -2.0895303904     1.9631650201
H    -10.4548689529    -0.7634135832     1.3339991598
H     13.1412843518     0.7760198727    -0.4395273320
H     -5.0659558650    -4.1046535545     1.6027073913
C     -8.1443439369     6.2508277655    -0.3073871381
H     -8.5650511878     4.6617313832    -1.7481105422
H     -6.8735458243     4.7284865649    -1.1989758677
H     11.1742738474     0.9805971926    -1.3475735905
C     15.1585021905     2.1363761670     0.9751753711
H     13.3009945197     2.7206229819     1.9513507544
H     13.4019306360     3.1923292584     0.2458438434
H     15.7062828212     3.0533438094     1.2525318728
H     15.5255676391     1.8142077480    -0.0155608984
H     15.4262699668     1.3508613434     1.7036967554
C     -7.7965081454     7.3387866943    -1.3334266386
H     -7.5279876772     6.3729387810     0.6006839115
H     -9.1987727128     6.3581120968     0.0097877318
H     -7.9634347132     8.3469263915    -0.9167939975
H     -8.4154647626     7.2464311428    -2.2436640140
H     -6.7376652285     7.2722485029    -1.6399248165
