84
nylon66 config_46520 from config_46520.mcos (coord_rad bohr -> angstrom)
C     -4.5879667512    -3.6875904503     0.6598588227
C     -3.3151899698    -4.4413490435     0.2708488904
C     -2.0461711098    -3.5939178026     0.4968579177
H     -3.3633387365    -4.7857035442    -0.7773063517
H     -3.2706755764    -5.3425562323     0.9103855392
C     -0.7605038175    -4.3894314890     0.2207443925
H     -2.0416505947    -3.2282570529     1.5395684123
H     -2.0804998064    -2.6998134707    -0.1550891272
C      0.5101204731    -3.5462504986     0.4533467975
H     -0.7680832483    -4.7622530173    -0.8216833410
H     -0.7236755837    -5.2776593469     0.8769269461
C      1.7853881588    -4.3778585578     0.3062453281
H      0.5028639937    -3.1533732963     1.4872100097
H      0.5229239646    -2.6767384576    -0.2272745479
O     -4.7754685922    -3.2805998836     1.8213168705
O      2.0143019654    -5.3563646329     1.0407949379
N      2.6341435342    -3.9865639492    -0.6816890022
C      3.8995792184    -4.6674760374    -0.9742101550
H      2.3789798094    -3.1793610512    -1.2452090460
C      5.1205966546    -4.0371366502    -0.2759605662
H      4.0412437802    -4.6574497963    -2.0698575975
H      3.7858484072    -5.7161764502    -0.6551890079
C      5.4504625258    -2.6120401468    -0.7491516889
H      5.9891553327    -4.6984590358    -0.4603239060
H      4.9489697633    -4.0417596387     0.8172400202
C      6.6812573801    -2.0148052744    -0.0453741617
H      4.5789869492    -1.9507362428    -0.5756095887
H      5.6217551014    -2.6204601967    -1.8442521585
C      7.0031106164    -0.5832885017    -0.5062932438
H      7.5597890732    -2.6655582235    -0.2270480016
H      6.5148890351    -2.0189858405     1.0499112015
C      8.2467433010    -0.0156363377     0.2039708023
H      6.1412356454     0.0812496130    -0.3076487557
H      7.1697216410    -0.5693321610    -1.6005012651
N      8.5774853581     1.3456723667    -0.2225639319
H      9.1221889529    -0.6610420032     0.0098690359
H      8.0816396802     0.0164263055     1.2933376368
H     -7.5191086703     1.8042086989     0.8124937852
H     -7.5381563543    -3.3363879903    -0.7244322537
H     -8.8238521136    -1.2098398723    -1.0333465313
H      9.3169737026     4.3000942403     0.5828443746
H     -8.3992572210     3.5699478541    -0.7841509098
H     -9.1251290347     1.1860452704    -1.0489997737
H     -6.3836838345    -1.3067322633    -1.7199663306
C      7.4448046324     4.6912369681    -0.4514581625
C     -4.6755806123     5.6837309020     0.5252536983
C      8.6597012550     3.7898154877    -0.1459613341
C      8.2480941799     2.4593296637     0.4852273180
C     -7.2131148034     1.8173761313    -0.2511804523
C     -8.0523419816    -0.6175873462    -0.5045126751
C     -6.7558983468    -2.7859878426    -0.1714965833
C     -6.6939546116    -1.3249249981    -0.6576028142
C     -8.0782585214     0.8258851836    -1.0494728692
C     -5.3367961334     4.6812870019    -0.4212780948
C     -7.3413115702     3.2520036677    -0.7992721232
N     -5.4885504041    -3.4996267891    -0.3412390985
N     -6.5602055930     4.2284081676    -0.0373137138
O     -4.7808426820     4.3114781364    -1.4723019898
O      7.6491550151     2.4124316369     1.5758916066
H     -6.9417708263     4.5570013739     0.8468216358
H     -8.3476132780    -0.6114951454     0.5631680843
H     -7.0081356670    -2.8207467306     0.9012047526
H     -6.1487726038     1.5216634639    -0.2801860333
H     -6.9873410573     3.2946145970    -1.8426073896
H     -5.9091191876    -0.7957467293    -0.0874478471
H     -7.7545558070     0.8231150626    -2.1088996420
H      9.2528199250     3.6264825080    -1.0634783935
H     -5.2551655228    -3.8398431680    -1.2712874376
C     -3.3343461931     5.1632269043     1.0836449896
H     -5.3544086430     5.9532173039     1.3540577904
H     -4.4929938862     6.6038006536    -0.0610084085
H      9.0494912029     1.4634655412    -1.1162101579
C      7.8620831608     6.0678074405    -0.9882556526
H      6.8504718979     4.8074611015     0.4720180839
H      6.7908088289     4.1848583298    -1.1861380654
H      8.4411275040     5.9760643327    -1.9244037061
H      8.4904247601     6.6060583630    -0.2567981520
H      6.9802189005     6.6961782606    -1.2010008506
C     -2.6185732849     6.2103933219     1.9487751840
H     -2.6909771365     4.8660042801     0.2367544078
H     -3.5173127480     4.2479823953     1.6775485899
H     -3.2365957957     6.5076995851     2.8146601026
H     -2.3961814167     7.1222503403     1.3668412687
H     -1.6633525145     5.8189166808     2.3387603366
