84
nylon66 config_15560 from config_15560.mcos (coord_rad bohr -> angstrom)
C      2.0666336423    -2.9563298874     2.2595137589
C      0.7141989796    -2.2554903210     2.1125418839
C      0.8498318554    -0.7194942201     2.1210021988
H      0.0982013309    -2.5712056820     2.9755520878
H      0.1909909543    -2.5888223271     1.1989598399
C     -0.5159673692    -0.0149835152     2.1190119189
H      1.4388789892    -0.3977239253     1.2405170610
H      1.4235833087    -0.4177679370     3.0156628536
C     -0.3801426916     1.5210820227     2.1425809935
H     -1.1012532236    -0.3341442459     3.0001545273
H     -1.0936081636    -0.3192282582     1.2248041724
C     -1.7346981388     2.2180895154     2.2813374462
H      0.1567305701     1.8723442911     1.2438088357
H      0.2219071020     1.8200773459     3.0210680294
O      2.7998430944    -2.7518633953     3.2445314304
O     -2.4798497020     2.0059143130     3.2558205474
N     -2.0581739211     3.0794466077     1.2802940469
C     -3.3134247903     3.8317445082     1.2301116324
H     -1.4092815611     3.1839081882     0.5036588338
C     -4.3633266881     3.1923564348     0.3007544897
H     -3.0867535254     4.8599510694     0.8952867722
H     -3.7007006311     3.8864748871     2.2609678489
C     -5.6605444785     4.0195661904     0.2586232826
H     -4.5654466432     2.1640184216     0.6510219282
H     -3.9440233991     3.1052512669    -0.7199969403
C     -6.7252543144     3.4788992833    -0.7187534764
H     -5.4116882290     5.0594415166    -0.0285219736
H     -6.0939062018     4.0768234682     1.2764734665
C     -7.3131101632     2.1141806054    -0.3178300246
H     -6.2888872060     3.4083692664    -1.7344331582
H     -7.5484855998     4.2158980705    -0.7881763036
C     -8.4375732897     1.6758696186    -1.2756298722
H     -7.7122195841     2.1701758362     0.7132144683
H     -6.5286727041     1.3357604560    -0.3130984476
N     -9.0352753672     0.3916048685    -0.9054440797
H     -8.0460610682     1.5669776080    -2.3004085572
H     -9.2370375510     2.4386031747    -1.2948778008
H      5.8005198805    -0.3271401188    -1.0286433447
H      4.1524485250    -4.4180963927     2.1614120583
H      4.3157450551    -2.0795049085     0.1437480481
H     -8.6742591526    -2.7415798113    -0.6777666629
H      6.9266904453    -0.8839886350    -3.2289477746
H      5.4302974422    -2.6054620276    -2.0646879785
H      3.9687185403    -4.3649231152    -0.9271136153
C    -10.3889604537    -2.6685737036    -2.0128190452
C      9.7297876759     2.3307047662    -1.8507048507
C     -9.4583092967    -2.0173197148    -0.9678766129
C     -8.7397004259    -0.7854156141    -1.5195562233
C      6.6155430790    -1.0744461557    -1.0768395842
C      5.1336569688    -2.8225148908     0.0771804316
C      3.6309952225    -4.5961987166     1.2068757824
C      4.5381661750    -4.2382361517     0.0147058472
C      6.0219848102    -2.4920207113    -1.1347742911
C      9.3311077904     0.8549175803    -1.8231276116
C      7.5081037118    -0.7738554202    -2.2961412975
N      2.3984717507    -3.8044956240     1.2490815102
N      8.0781983102     0.5749348795    -2.2716425069
O     10.1110336412    -0.0242179150    -1.4113999391
O     -7.9503514077    -0.8658941753    -2.4792639696
H      7.4870652601     1.3475120681    -2.5696146638
H      5.7265931930    -2.7172931200     1.0071378330
H      3.3627714310    -5.6677637843     1.1621983757
H      7.2145211842    -0.9522008016    -0.1548293616
H      8.3508673986    -1.4835101408    -2.3339726930
H      5.3546879398    -4.9848964612    -0.0174625654
H      6.8450986718    -3.2311479476    -1.2003621318
H    -10.0277686544    -1.7681667701    -0.0546483591
H      1.7346360944    -3.9248130904     0.4863664377
C     10.0108697240     2.8850409077    -0.4378041811
H      8.9573942699     2.9409678442    -2.3520587459
H     10.6506106852     2.4019175131    -2.4591129500
H     -9.6772185813     0.3764314630    -0.1161055262
C    -11.0276575282    -3.9651400727    -1.4946655370
H     -9.8052170088    -2.8722245840    -2.9278159770
H    -11.1795974004    -1.9484226785    -2.2959221127
H    -10.2567061634    -4.7120848508    -1.2354386944
H    -11.6892251455    -4.4145094159    -2.2550593727
H    -11.6342393250    -3.7813996775    -0.5900131959
C     10.5093334913     4.3368273142    -0.4710816133
H     10.7589855236     2.2378284791     0.0531704253
H      9.0887201706     2.8189668377     0.1697228273
H      9.7667418406     5.0063830052    -0.9404258764
H     11.4482467251     4.4218791027    -1.0462094317
H     10.7033927885     4.7145558742     0.5474774680
