84
nylon66 config_34850 from config_34850.mcos (coord_rad bohr -> angstrom)
C      2.3767206216    -4.1687311319    -0.2393535551
C      0.8818810356    -3.9067338984    -0.0492128374
C      0.0282003763    -5.0868856364    -0.5642118529
H      0.6493661979    -2.9919780362    -0.6228026596
H      0.6452726348    -3.7020547308     1.0096971809
C     -1.4929488228    -4.8872330917    -0.4175713327
H      0.3153433296    -6.0008458329    -0.0110126238
H      0.2775502352    -5.2705634956    -1.6250949159
C     -2.1010099651    -3.7891852729    -1.3152424549
H     -1.7504683167    -4.6663196548     0.6342239195
H     -1.9869358429    -5.8444058615    -0.6648460753
C     -1.9667557137    -2.3697554998    -0.7509965362
H     -3.1891672115    -3.9648835483    -1.4085102065
H     -1.6845481784    -3.8488679632    -2.3366847277
O      2.8787498974    -4.2720400842    -1.3741761381
O     -2.2243630781    -2.1114541900     0.4383217976
N     -1.5902133713    -1.4221674202    -1.6519566741
C     -1.4522736665     0.0035500677    -1.3437802549
H     -1.3686877769    -1.7237646221    -2.5992575169
C     -2.3848356209     0.8893449774    -2.1939798954
H     -0.4018191844     0.3060364015    -1.5116501829
H     -1.6624060038     0.1125380773    -0.2683505155
C     -3.8895825577     0.6981879454    -1.9224485826
H     -2.1753264513     0.6989504969    -3.2636317217
H     -2.1031547064     1.9440119895    -2.0105379646
C     -4.3536473782     1.2159108542    -0.5490497090
H     -4.1498670506    -0.3735702888    -2.0227018923
H     -4.4583722514     1.2227457970    -2.7140336733
C     -5.8684648082     1.0582218294    -0.3337784312
H     -4.0772756678     2.2844437004    -0.4513846509
H     -3.8176267561     0.6812006509     0.2586634883
C     -6.3138980005     1.6009168198     1.0376130043
H     -6.1512526129    -0.0091904032    -0.4124702408
H     -6.4214457312     1.5931245862    -1.1287556231
N     -7.7511853320     1.4501384393     1.2751654712
H     -6.0816463176     2.6758810071     1.1141432511
H     -5.7748369307     1.0766241532     1.8468674496
H      6.5677315377     0.1680122227    -0.2747037225
H      4.7026333704    -5.5106291140     1.5034741028
H      5.7814780853    -2.2972214215    -0.1864296828
H    -10.1945098435     1.0661249479     1.7852965150
H      7.9640818242     1.1385154525     1.5774804762
H      7.1767974983    -1.3189667554     1.6818029090
H      6.3831393405    -3.7937394776     1.7393599650
C    -10.9937843411     2.1948780459     0.0927753525
C      7.7212482799     4.4880917207    -0.7386395099
C    -10.1143748709     2.0808130429     1.3560874203
C     -8.6558278222     2.4463511054     1.0789914003
C      6.1256511987     0.3256310320     0.7271944106
C      5.3471915386    -2.1166147891     0.8166447555
C      4.5370145062    -4.5663653705     0.9526174056
C      5.3448290722    -3.4325233687     1.6114552295
C      6.1303027456    -0.9932849986     1.5181936782
C      7.9345805540     3.1413881388    -0.0463983757
C      6.9099608326     1.4355106136     1.4523089708
N      3.0983181331    -4.2930821300     0.9072726995
N      6.9038262191     2.7081013697     0.7278146028
O      8.9941237014     2.5008164570    -0.1786768048
O     -8.3305539173     3.5856720669     0.6959220590
H      6.0611557536     3.2766563611     0.7719335393
H      4.3046707497    -1.7841851784     0.6495571129
H      4.8603310205    -4.7230390600    -0.0893213328
H      5.0835227085     0.6618318695     0.5652984842
H      6.4826555977     1.6071997863     2.4567442625
H      4.9531843279    -3.2533651080     2.6321664485
H      5.6996902705    -0.8203009101     2.5242978066
H    -10.4822572726     2.7904825496     2.1204993714
H      2.6062536799    -4.2068872710     1.7947539912
C      8.7485781806     5.5466901768    -0.2854478247
H      6.6938735311     4.8597321858    -0.5753780260
H      7.8366651210     4.3109561016    -1.8244762791
H     -8.0924692087     0.5374167156     1.5679232186
C    -12.4765998688     1.9303931955     0.3903278484
H    -10.6310150992     1.4800766833    -0.6696526343
H    -10.8664704204     3.2046333514    -0.3359292704
H    -12.8693930950     2.6533940232     1.1269002591
H    -12.6299499567     0.9165368724     0.8009836459
H    -13.0877757127     2.0164471242    -0.5244726770
C      8.6091130426     6.8633529275    -1.0628088497
H      9.7633549103     5.1320203278    -0.4182904034
H      8.6236932372     5.7356755892     0.7974255646
H      9.3508307934     7.6065791604    -0.7232733168
H      7.6061522766     7.3061072704    -0.9280180508
H      8.7627659104     6.7044208601    -2.1447592243
