84
nylon66 config_20460 from config_20460.mcos (coord_rad bohr -> angstrom)
C     -5.0208081958     2.2502051526     0.4747870581
C     -5.7868312396     0.9346111013     0.3306495448
C     -5.0127661773    -0.2693130351     0.9084622092
H     -6.0612538464     0.7450817608    -0.7219387599
H     -6.7285142849     1.0636147311     0.8965579242
C     -5.9083253289    -1.5119225459     1.0487282262
H     -4.6095639814     0.0065373852     1.8996233782
H     -4.1453254479    -0.4939179887     0.2582651910
C     -5.1742763257    -2.7468366548     1.5964855923
H     -6.3503855082    -1.7750453318     0.0706590300
H     -6.7499679393    -1.2689281648     1.7233473086
C     -4.3267476101    -3.4799041365     0.5479273764
H     -5.9171074825    -3.4898583222     1.9450529017
H     -4.5616735464    -2.4846897676     2.4780128623
O     -4.7305839423     2.7156021006     1.5925305901
O     -4.6876337957    -3.5787087745    -0.6381955910
N     -3.1924380816    -4.0589296743     1.0286087692
C     -2.3597340635    -4.9905302981     0.2606003025
H     -2.9837158861    -3.9487082231     2.0194764918
C     -0.8939393953    -4.5474289728     0.1117507857
H     -2.8337503266    -5.0883633893    -0.7294386541
H     -2.3964952477    -5.9811436411     0.7518204787
C     -0.6877291802    -3.2835058646    -0.7397603081
H     -0.3485537225    -5.3928779035    -0.3508112582
H     -0.4447993430    -4.4056192042     1.1142622825
C      0.7965616661    -3.0081435158    -1.0373044490
H     -1.1369622592    -2.4100672276    -0.2292335679
H     -1.2338642875    -3.3980212965    -1.6973726316
C      1.0197006994    -1.7441398010    -1.8834040782
H      1.2236173302    -3.8807865385    -1.5700329144
H      1.3572490866    -2.9218811692    -0.0868008535
C      2.4785317834    -1.5301727255    -2.3331636172
H      0.6707278032    -0.8524739374    -1.3278717158
H      0.4000791454    -1.8000482751    -2.7996109856
N      3.4096504950    -1.2680058219    -1.2328304458
H      2.5244619753    -0.6772649488    -3.0348783931
H      2.8471864502    -2.4251003376    -2.8616739962
H      0.5597038086     4.8610975942    -2.5273976599
H     -4.2688838352     4.6704544074    -1.6614449663
H     -2.3008109062     2.3963145864    -2.0043155657
H      4.9740813655    -0.6637394878     0.6355921524
H      2.6734214374     4.9625928722    -1.3553040530
H      0.0748149484     2.4311635087    -2.4302695661
H     -2.2158943495     3.4940725420     0.3212844041
C      6.7751443344    -1.6246695907    -0.1503728273
C      2.9048630313     2.0561324480     1.9581244056
C      5.2924080697    -1.6575291990     0.2746956884
C      4.3770395447    -2.1403182406    -0.8528494608
C      0.5931229586     4.3390640531    -1.5526181350
C     -1.7904818518     3.3588284377    -1.8098125628
C     -3.9899242748     4.1683830728    -0.7185912751
C     -2.4570571552     4.0467679169    -0.6061702037
C     -0.2872592784     3.0779457051    -1.6086055500
C      2.7849628238     2.3473516654     0.4646565956
C      2.0696484392     4.0454050295    -1.2255387326
N     -4.6922794216     2.8804078431    -0.6838340674
N      2.2500567185     3.5503491494     0.1429429793
O      3.1875429742     1.5367952268    -0.3983476258
O      4.5351823300    -3.2637682605    -1.3732503129
H      1.9564764459     4.1600312681     0.9045787925
H     -1.9399589156     3.9750956401    -2.7188028981
H     -4.3721266343     4.7793961303     0.1163395087
H      0.2013097336     5.0560472264    -0.8064017229
H      2.4788071125     3.2742006538    -1.8977096468
H     -2.0554771564     5.0686041608    -0.4753913480
H     -0.1566801663     2.4962795407    -0.6759810596
H      5.1716334178    -2.3686973031     1.1138805061
H     -4.9556534122     2.4466915142    -1.5648498938
C      4.3445366964     2.2719747715     2.4794010793
H      2.6133905288     1.0015384675     2.1065325024
H      2.2001359824     2.6817415363     2.5348339249
H      3.3738286768    -0.3367820435    -0.7937066914
C      7.7099310555    -1.2670732994     1.0140548178
H      6.9032195220    -0.8934524518    -0.9710735871
H      7.0448820309    -2.6121593733    -0.5645381675
H      7.6230510265    -2.0024275284     1.8334824582
H      7.4723017818    -0.2721037414     1.4304554284
H      8.7644137619    -1.2495542408     0.6886090196
C      4.4792660598     1.9154032142     3.9665766550
H      4.6353280864     3.3266593490     2.3187233407
H      5.0397247543     1.6580255272     1.8791848107
H      5.5127498165     2.0713819418     4.3202430688
H      4.2169153536     0.8584440309     4.1483667330
H      3.8138960848     2.5390245172     4.5893041046
