84
nylon66 config_86410 from config_86410.mcos (coord_rad bohr -> angstrom)
C     -2.6342110852    -3.9413211331    -1.1211417727
C     -1.2392307588    -3.3166382004    -1.1901059357
C     -1.2744482687    -1.8788131021    -1.7476606843
H     -0.6382251384    -3.9544117409    -1.8649937159
H     -0.7474762920    -3.3312646473    -0.2013925143
C      0.1345466355    -1.3015532011    -1.9556205777
H     -1.8468251122    -1.2309185594    -1.0560602591
H     -1.8213774579    -1.8819373971    -2.7077202274
C      0.0997894859     0.1346212919    -2.5169926740
H      0.7008715372    -1.9438010135    -2.6538513891
H      0.6872239257    -1.3074184109    -0.9963450516
C      1.4980887999     0.6546652294    -2.8569069879
H     -0.4140354564     0.8091873457    -1.8095999816
H     -0.4802717566     0.1437405859    -3.4587967914
O     -3.3291261415    -4.0908061749    -2.1431052684
O      2.2215880998     0.0748769427    -3.6876031046
N      1.8828529697     1.7767679217    -2.1911269585
C      3.1712412272     2.4484108448    -2.3819866769
H      1.2245378002     2.1959609022    -1.5370888121
C      4.0433357322     2.4533423083    -1.1122780142
H      2.9842205252     3.4874936868    -2.7097740856
H      3.6821620961     1.9213879732    -3.2041900340
C      4.5263229538     1.0615221030    -0.6734045086
H      3.4816702350     2.9331808368    -0.2866717955
H      4.9154992654     3.1055159350    -1.3102833562
C      5.3786283683     1.0982719634     0.6064616568
H      5.1147923498     0.6042408294    -1.4931171841
H      3.6521661710     0.4012587783    -0.5124428214
C      5.8597669513    -0.2934622662     1.0482937218
H      4.7912553573     1.5591925574     1.4257000077
H      6.2527581145     1.7586185812     0.4413432720
C      6.7216515982    -0.2853303583     2.3265088102
H      6.4357934702    -0.7709313522     0.2330488315
H      4.9846296247    -0.9446619693     1.2377049425
N      8.0052541144     0.4057662961     2.1679401074
H      6.9440267574    -1.3196081117     2.6354705405
H      6.1750121030     0.2072317180     3.1504897957
H     -6.2093441459     0.0016434131     0.6402570740
H     -4.8191447139    -5.1313191821    -0.5701588840
H     -4.8468421532    -2.1714216988     0.3407748593
H     10.1687894846     1.6984263400     2.0148630858
H     -7.4519667062     0.4741343821     2.7733529348
H     -6.0746596602    -1.7018666544     2.5035712385
H     -4.7255430789    -3.8547216272     2.2473111639
C     11.0053431862     0.6327937285     0.2992693005
C     -8.5275258120     3.8439817153     0.7421973697
C     10.3982019274     0.6594309631     1.7179124843
C      9.1601524849    -0.2301595132     1.8336321064
C     -7.0859063934    -0.6139533532     0.9170108970
C     -5.7259496462    -2.7718871364     0.6441572894
C     -4.3412770852    -4.9410168523     0.4046569598
C     -5.2526776341    -4.0794290516     1.2991783614
C     -6.6221670502    -1.9282229985     1.5673807077
C     -7.9130632694     2.6674174880     1.5009352318
C     -7.9959835157     0.2033644184     1.8536204071
N     -3.0496472102    -4.3095666369     0.1207195389
N     -8.4660183397     1.4510085935     1.2479626657
O     -6.9657901837     2.8256032809     2.2935137335
O      9.2162358726    -1.4573424292     1.6315077561
H     -9.2241449610     1.3964619793     0.5714565184
H     -6.2775021162    -3.0089271607    -0.2869883780
H     -4.1588408130    -5.9175430529     0.8894477734
H     -7.6308385997    -0.8315154045    -0.0215745580
H     -8.8787575083    -0.3951828059     2.1419765803
H     -6.1288427516    -4.6975911137     1.5738542366
H     -7.5087568724    -2.5233895642     1.8641382612
H     11.1407999861     0.2686104661     2.4385944443
H     -2.4124732401    -4.1649879456     0.9017249536
C     -7.5086830209     4.5296109376    -0.1927708962
H     -8.8706897620     4.5709682964     1.5018459304
H     -9.4159864577     3.5249940511     0.1684444797
H      8.0339657150     1.4112791205     2.3167743441
C     12.3120547561     1.4339257805     0.2100917696
H     10.2683408508     1.0362729679    -0.4203882503
H     11.1834890402    -0.4184939850     0.0117526814
H     12.7288667548     1.4032385481    -0.8112328401
H     13.0750145831     1.0277858094     0.8974618917
H     12.1529625069     2.4945025776     0.4746234993
C     -8.0925081405     5.7735363466    -0.8776201974
H     -7.1702351298     3.8048219908    -0.9569672063
H     -6.6169441541     4.8044006213     0.3978931946
H     -8.9748639172     5.5182538556    -1.4910692825
H     -7.3496691988     6.2479464714    -1.5416425682
H     -8.4078975758     6.5260288859    -0.1334078429
