84
nylon66 config_62050 from config_62050.mcos (coord_rad bohr -> angstrom)
C      4.1834102143     2.4162833501    -0.1302720397
C      3.1380267806     1.3316796058     0.1386372998
C      1.7738190243     1.6760288960    -0.4925735185
H      3.0406761801     1.2556253892     1.2374595482
H      3.4921395176     0.3531993862    -0.2293451119
C      0.6728660336     0.6395956104    -0.1980409414
H      1.8977941092     1.7538831038    -1.5891786506
H      1.4596578423     2.6755293951    -0.1422324993
C      0.2437202109     0.5915639570     1.2839366559
H      1.0078466586    -0.3675530599    -0.5057753883
H     -0.2120619171     0.8788372385    -0.8171755956
C     -0.7953566061    -0.5013558102     1.5368987984
H     -0.1327024150     1.5801169113     1.6016438585
H      1.1115495167     0.3496516912     1.9236215094
O      3.9728233086     3.6096265323     0.1677145325
O     -0.5431934786    -1.7029103408     1.3300346721
N     -2.0011867192    -0.0726193370     1.9969509421
C     -3.1163958824    -0.9749879465     2.3010480977
H     -2.1342828010     0.9249984416     2.1419716472
C     -4.1131470128    -1.1432837921     1.1370418037
H     -3.6362216716    -0.5784191796     3.1915372494
H     -2.6814070020    -1.9518835885     2.5674247900
C     -4.8834713327     0.1384441292     0.7803179379
H     -4.8293532151    -1.9383071360     1.4212568309
H     -3.5666521378    -1.5156840647     0.2498474919
C     -5.8727139705    -0.0556562357    -0.3812234757
H     -4.1676846509     0.9414913801     0.5152988900
H     -5.4332162126     0.4948167449     1.6743427611
C     -6.6453128562     1.2259396488    -0.7334490924
H     -6.5872152834    -0.8605974084    -0.1184158331
H     -5.3227983221    -0.4084873403    -1.2765103338
C     -7.6438151848     1.0610939003    -1.8961781595
H     -5.9303239423     2.0228407408    -1.0157986649
H     -7.1910743064     1.5944887472     0.1557973865
N     -8.7623384010     0.1626192538    -1.5938884186
H     -7.1258655395     0.6648285813    -2.7879060168
H     -8.0752135226     2.0400877267    -2.1609028461
H      9.7833556563    -0.3990507182     1.1293829028
H      6.8483756264     2.5690011192    -2.0200396490
H      8.5361883316     1.2464829905    -0.8579423948
H    -11.9829367570    -0.0356065550    -0.8572596404
H      9.1775298739    -2.3166060629    -0.1565718208
H      6.8272555658     0.4590616922     0.9620849310
H      7.1431546506     3.2902599715     0.9677924947
C    -10.7632610039    -1.2261133585     0.5113535968
C      4.7749777146    -2.8292143127    -0.3675485900
C    -10.9887333285    -0.5113881950    -0.8453474602
C     -9.9661723958     0.5936173378    -1.1258656099
C      8.7007470713    -0.6307087533     1.1454694078
C      8.4227302964     1.7145321904     0.1401954797
C      6.4292833334     2.9006952008    -1.0527389316
C      7.5645237234     2.9908997469    -0.0105717861
C      7.8915854827     0.6823752850     1.1554098502
C      5.9635784009    -1.8920622979    -0.5682300027
C      8.3915377010    -1.5478867693    -0.0558709682
N      5.3327939054     1.9900907056    -0.7116366521
N      7.1072513088    -2.2494713073     0.0627504872
O      5.8780840163    -0.8797959278    -1.2985424956
O    -10.2100792182     1.7971649898    -0.9194342069
H      7.0859410673    -3.0825559420     0.6476758094
H      9.4447206519     2.0006331813     0.4518736988
H      5.9866720874     3.9001001461    -1.1991494067
H      8.5215518950    -1.1997319594     2.0765963713
H      8.3637317238    -0.9722738851    -0.9951972421
H      8.2143645455     3.8259871454    -0.3334737231
H      7.9308897760     1.1302933604     2.1659276448
H    -10.9616784916    -1.2592821489    -1.6587696741
H      5.4495050386     0.9904478476    -0.9207104632
C      4.3895421407    -3.5589376971    -1.6736299098
H      3.9236299554    -2.2092024226    -0.0325750489
H      4.9821890057    -3.5641916074     0.4303153500
H     -8.6369468123    -0.8331172698    -1.7604653215
C    -10.8949287693    -0.3043158788     1.7321121003
H     -9.7693085511    -1.7099979956     0.5094902884
H    -11.5016675020    -2.0451967795     0.5841965554
H    -10.7703676407    -0.8723958291     2.6697770920
H    -11.8872546938     0.1792475032     1.7592774189
H    -10.1357091932     0.4965919411     1.7227266978
C      3.1441942297    -4.4396031019    -1.4986705068
H      5.2422693020    -4.1780085025    -2.0095852614
H      4.2150290441    -2.8055877504    -2.4620034808
H      2.8821746613    -4.9482657505    -2.4421925371
H      2.2723433773    -3.8386171981    -1.1862347454
H      3.3072851488    -5.2183077132    -0.7325826092
