84
nylon66 config_94000 from config_94000.mcos (coord_rad bohr -> angstrom)
C      1.3207841188     3.8226430009    -0.5774366292
C      0.2990250541     3.8652181897     0.5588547870
C      0.2898908620     2.5607955319     1.3986094598
H     -0.6966441785     4.0238061973     0.1083734140
H      0.5012922834     4.7248886199     1.2212220118
C     -0.3661645773     1.3648202875     0.6893909103
H     -0.2546118947     2.7634092625     2.3392444551
H      1.3275122673     2.3093770732     1.6909834335
C     -0.3027141478     0.0746136647     1.5360944335
H      0.1227953783     1.1935878915    -0.2860047274
H     -1.4241142806     1.6053401501     0.4772994954
C     -1.1350030014    -1.0492223743     0.9195661297
H     -0.7256713258     0.2697721671     2.5392154955
H      0.7455133047    -0.2436854243     1.6684542126
O      1.1268256307     3.1678087640    -1.6194635966
O     -2.3852216800    -0.9700823619     0.8764362144
N     -0.4397190877    -2.1023398337     0.4318690615
C     -1.0701386669    -3.2592776631    -0.2111652601
H      0.5884615348    -2.1017298810     0.5036684868
C     -0.9326523918    -3.2624657008    -1.7512809037
H     -2.1290961744    -3.2598237160     0.0897186599
H     -0.6045593261    -4.1733130041     0.1982572310
C     -1.5462716076    -2.0334053002    -2.4480763310
H     -1.4035766289    -4.1927262301    -2.1234086291
H      0.1397387139    -3.3323149649    -2.0127409954
C     -3.0709568853    -1.9062239697    -2.2760300835
H     -1.2853923946    -2.0603552230    -3.5230662132
H     -1.0645858493    -1.1222295645    -2.0444614112
C     -3.6044136000    -0.5027378594    -2.6256658653
H     -3.3257634735    -2.1238548382    -1.2241220279
H     -3.5887489623    -2.6688574011    -2.8886588721
C     -4.9954631841    -0.2143619495    -2.0447795433
H     -3.6510084626    -0.3673346056    -3.7216134697
H     -2.8997971785     0.2646146140    -2.2495453804
N     -4.9491270361    -0.1702961481    -0.5766626314
H     -5.7218820612    -0.9867495322    -2.3631764760
H     -5.3785534429     0.7510349715    -2.4231834789
H      5.9341857236     0.4302255997     0.9137412625
H      3.4242259694     3.7367175317    -2.0040572117
H      6.0017304653     3.0278540537     0.8444898260
H     -6.7895480332    -0.2062459502     2.1597873197
H      5.6894061505    -0.9444722324    -1.1799407813
H      5.7945355403     1.6981547897    -1.2743641913
H      5.1286756968     5.1841064805     0.1407293360
C     -5.4126166515     1.4909879412     2.1904267535
C      3.7326248453    -3.7689387104     1.7241386807
C     -5.8392678887     0.0893861304     1.6845201543
C     -6.0611310850     0.0368508542     0.1707628748
C      4.9906026978     0.4687443099     0.3367184666
C      5.0468793674     3.0197892911     0.2849367177
C      3.6105311784     4.5321115507    -1.2657878451
C      4.9495082856     4.3229002401    -0.5312014486
C      4.9603622018     1.7276083797    -0.5460800624
C      3.6094201899    -2.5729916233     0.7808916252
C      4.8405114565    -0.8253878099    -0.4844036318
N      2.4685031606     4.5187277348    -0.3487086169
N      4.7728291330    -2.0229460546     0.3586768374
O      2.4976722876    -2.1285727874     0.4210156014
O     -7.1857585893     0.2072501846    -0.3455048279
H      5.6456501036    -2.4169061814     0.7023001363
H      4.2476303344     3.0095402518     1.0509813101
H      3.6393954752     5.4912471135    -1.8174980361
H      4.1685255517     0.5151835327     1.0756592174
H      3.9133284388    -0.7905840903    -1.0793582459
H      5.7519637389     4.3571637527    -1.2920640819
H      4.0275028136     1.7224265504    -1.1421385936
H     -5.0671661282    -0.6461920710     1.9718031318
H      2.5427141742     5.0584084577     0.5119516514
C      2.9932746993    -5.0195121121     1.2039519836
H      3.2899726974    -3.4529743841     2.6866572879
H      4.7944413653    -4.0046609283     1.9141269044
H     -4.0553115199    -0.3633207731    -0.1068248943
C     -6.4590221188     2.5906295648     1.9599357338
H     -4.4567789428     1.7718877454     1.7115714238
H     -5.1993713942     1.4058759245     3.2717892393
H     -6.6616271387     2.7421271087     0.8860367289
H     -6.1169177737     3.5535479043     2.3768995081
H     -7.4177252191     2.3346818878     2.4448298035
C      3.6225018831    -5.6195970832    -0.0620993501
H      1.9385030483    -4.7534124492     1.0151941544
H      2.9854177542    -5.7733338597     2.0116358736
H      4.6799942527    -5.8885327710     0.1079166947
H      3.5899393193    -4.9095486591    -0.9075137452
H      3.0892491036    -6.5329318671    -0.3756364667
