84
nylon66 config_74780 from config_74780.mcos (coord_rad bohr -> angstrom)
C     -2.2891122205     2.0670547776     1.8263301336
C     -2.3703395260     0.5998220313     2.2610774289
C     -1.1317955211     0.1441103016     3.0613103362
H     -2.5042161475    -0.0434638835     1.3752808786
H     -3.2731993353     0.4950352920     2.8899980065
C      0.1831735844     0.3234430420     2.2842037585
H     -1.2665587790    -0.9174711779     3.3357012407
H     -1.0750408358     0.7126619081     4.0071675475
C      1.4152654949    -0.3528000007     2.9387405666
H      0.3952052273     1.4032708117     2.1824464484
H      0.0671503873    -0.0619620558     1.2530152173
C      1.4461804178    -1.8590143783     2.6782490308
H      1.4001286987    -0.1957288266     4.0311120733
H      2.3323672007     0.1091938147     2.5366924899
O     -2.1153737721     2.9846450634     2.6535756093
O      0.8295730787    -2.6730907896     3.3973046768
N      2.1555570863    -2.2283973761     1.5796851397
C      2.2460722001    -3.6128215736     1.1097051011
H      2.6624600037    -1.5030208397     1.0528036377
C      2.1450612129    -3.7033662170    -0.4243119931
H      1.4395061431    -4.1760157762     1.6063520168
H      3.2038426099    -4.0605499819     1.4400486964
C      0.7897667149    -3.2652685593    -1.0142524913
H      2.3624022895    -4.7478576033    -0.7182740391
H      2.9524338045    -3.0889568654    -0.8649017949
C     -0.3516334548    -4.2755636811    -0.7924435074
H      0.9103468389    -3.1105081337    -2.1029870041
H      0.5207678563    -2.2770259889    -0.5952643204
C     -1.6882911163    -3.8430323869    -1.4322291069
H     -0.5083452064    -4.4545719368     0.2893327369
H     -0.0476251940    -5.2492154294    -1.2211021089
C     -2.3691148018    -2.7040606402    -0.6525100943
H     -2.3752048730    -4.7086926374    -1.4776616094
H     -1.5185974150    -3.5203256192    -2.4770544701
N     -3.5914186102    -2.2391087745    -1.3136564930
H     -1.7119784092    -1.8259246632    -0.5624801987
H     -2.6112702671    -3.0477265054     0.3710424006
H      3.4740064734     4.6441957199    -1.2872667906
H     -3.3157106285     3.7322678427    -0.7162419080
H      0.1644524878     4.6789697166     0.4033181867
H     -4.8799737861    -0.2632264468    -3.3277513977
H      2.5710091118     2.4039107933     0.6469056504
H      1.1868925218     4.9875489566    -1.8903735832
H     -1.3288502157     4.7470850454    -1.6210350199
C     -6.0620404995     0.3487941267    -1.6046858357
C      4.2915954387    -0.1505125628    -2.0831805674
C     -5.1633590652    -0.6683756319    -2.3389980342
C     -3.8539653254    -0.9406443712    -1.5986884257
C      2.7308259206     4.2190948378    -0.5853485725
C      0.1831248907     3.8563194283    -0.3385564549
C     -2.3832101222     3.5969800274    -0.1379990458
C     -1.1697415488     3.8016641226    -1.0672742468
C      1.3693581687     4.0716899351    -1.2956322693
C      3.8002755317     0.6472722835    -0.8752596302
C      3.3058718162     2.9239215579     0.0119032394
N     -2.4124114173     2.2737747431     0.4897102017
N      3.7195244348     1.9887442821    -1.0412974355
O      3.4886645887     0.0881415000     0.1986415714
O     -3.0722175098    -0.0121874051    -1.2995790290
H      4.0557763513     2.3861729988    -1.9169390226
H      0.3226952103     2.9226941939     0.2383911231
H     -2.3782140223     4.3419752795     0.6746958634
H      2.6402846159     4.9540791216     0.2362008698
H      4.1737337597     3.1641924522     0.6559898860
H     -1.1562173825     2.9967039899    -1.8280894674
H      1.4148076924     3.2408721263    -2.0263420786
H     -5.7143359106    -1.6086209507    -2.5179327267
H     -2.6026113645     1.4649176017    -0.1156771631
C      5.5401525116    -0.9993782229    -1.7590658987
H      4.4968697526     0.5193436037    -2.9365128903
H      3.4606036310    -0.8150429644    -2.3813366359
H     -4.2970818152    -2.9330351287    -1.5541626300
C     -6.6443022767    -0.1887259344    -0.2888082876
H     -6.8825430648     0.6374539046    -2.2860728332
H     -5.4752643815     1.2648537355    -1.4153189187
H     -7.3045348958     0.5560740591     0.1869097985
H     -5.8489539003    -0.4377897333     0.4361218137
H     -7.2379326711    -1.1039428729    -0.4605224114
C      6.7911100232    -0.1590617234    -1.4617855663
H      5.7335133282    -1.6669178279    -2.6180203206
H      5.3093185478    -1.6536570881    -0.8998257582
H      7.0354342821     0.5060594339    -2.3089295607
H      7.6669912610    -0.8037380619    -1.2769190922
H      6.6517581851     0.4750559955    -0.5681007469
