84
nylon66 config_52090 from config_52090.mcos (coord_rad bohr -> angstrom)
C      0.8037358581     1.9868387791    -1.2364974771
C      1.6965030059     1.7074082764    -2.4496609514
C      2.8394616104     2.7294919383    -2.6432472887
H      1.0271626259     1.7509854218    -3.3293800374
H      2.1062410708     0.6841059104    -2.4015427356
C      4.0267249972     2.5617543105    -1.6731591820
H      2.4283382883     3.7532677227    -2.5742569378
H      3.2169560127     2.6152235389    -3.6756552671
C      3.7832072173     3.1295089483    -0.2553133124
H      4.9164883538     3.0644623164    -2.0908156303
H      4.2841999692     1.4877568579    -1.5994601098
C      4.9777718314     2.8476781418     0.6570000560
H      2.8597622038     2.7147372186     0.1813500188
H      3.6535668032     4.2247938765    -0.3201208199
O      0.2576296127     3.0971958955    -1.0787072286
O      6.1159122759     3.2836557971     0.4026219854
N      4.7064446568     2.0630306746     1.7349804865
C      5.7165578559     1.5544821882     2.6659892182
H      3.7450005448     1.7565160583     1.8730660767
C      5.6477389559     0.0206985238     2.7946830587
H      5.5776749983     2.0222926807     3.6585830533
H      6.6957597416     1.8787109132     2.2772619691
C      5.9505130648    -0.7260455325     1.4850468154
H      4.6419760179    -0.2651089858     3.1625981899
H      6.3609810745    -0.2870713042     3.5824503336
C      5.7553958788    -2.2477413526     1.5991524838
H      6.9908863900    -0.5124284454     1.1706415354
H      5.2972849192    -0.3247695743     0.6876187319
C      6.0122991342    -3.0088820223     0.2836252939
H      4.7292709651    -2.4632609343     1.9556080681
H      6.4355715824    -2.6463170076     2.3761336216
C      4.9604178663    -2.7740773997    -0.8180742217
H      6.0754009872    -4.0945790867     0.4879574965
H      6.9972159296    -2.7192664613    -0.1297195613
N      3.6502886044    -3.3344457169    -0.4727718331
H      5.3068846533    -3.2332908643    -1.7629434956
H      4.8037759215    -1.7014407794    -1.0090854274
H     -5.0712640837     1.4611337033    -1.0702111844
H      0.4457270405     0.6645352157     1.6832595068
H     -2.7564219782     1.7734068935     0.0037875595
H      1.4968988718    -4.4206505193     0.2994234896
H     -5.8774595470    -1.4730859930    -1.5980980617
H     -4.2395421047    -0.1417237397     0.7184855347
H     -1.9187820384     0.1984135590     1.7815656858
C      0.3752708438    -3.6881498901    -1.4266204498
C     -8.6410612870     0.3617545318     1.4111943677
C      1.2329781622    -3.4523583059    -0.1622083229
C      2.4867356381    -2.6390948842    -0.4700038345
C     -4.8133831557     0.4112207836    -1.3063235504
C     -2.4996567285     0.7251817529    -0.2467623985
C     -0.1693466990     1.0205864921     0.8370154840
C     -1.4720505252     0.1994188866     0.7683551654
C     -3.7857996401    -0.1170834712    -0.2920512958
C     -7.9202367888     0.4957760928     0.0693779751
C     -6.1120198319    -0.4159575128    -1.3787198626
N      0.6412574823     0.9439327370    -0.3817756440
N     -6.9040832729    -0.3825290461    -0.1450999679
O     -8.2635043220     1.3444449086    -0.7744790583
O      2.4274251777    -1.4172539585    -0.7318200349
H     -6.6802005592    -1.0493764481     0.5891279542
H     -2.0422375149     0.7509372204    -1.2545058846
H     -0.3983295450     2.0854206935     1.0094503257
H     -4.3642235900     0.4181186272    -2.3182441276
H     -6.7545065265    -0.0345836585    -2.1889716221
H     -1.2254864176    -0.8552583954     0.5385157138
H     -3.5301717918    -1.1659434601    -0.5428142079
H      0.6456045743    -2.8807432120     0.5781713154
H      1.1763040673     0.0784829388    -0.5466506138
C    -10.1154258764    -0.0625903540     1.2395514952
H     -8.6024271785     1.3546438225     1.8967993444
H     -8.1157972778    -0.3484676642     2.0745903959
H      3.6070787565    -4.3322603209    -0.2710203882
C     -0.9151645077    -4.4586312101    -1.1140731755
H      0.9727014459    -4.2442947923    -2.1727807751
H      0.1328040924    -2.7107423588    -1.8803785787
H     -1.5446032591    -3.9056928557    -0.3950484525
H     -0.6949591522    -5.4486568241    -0.6771900462
H     -1.5119610663    -4.6207891357    -2.0279862519
C    -10.8702761186    -0.0972284808     2.5761003663
H    -10.1543153014    -1.0593163578     0.7611971750
H    -10.6068404338     0.6405725567     0.5440112511
H    -10.8716882607     0.8964314889     3.0578435889
H    -10.4078493159    -0.8110790716     3.2808132393
H    -11.9208497777    -0.4027680462     2.4320537062
