84
nylon66 config_38400 from config_38400.mcos (coord_rad bohr -> angstrom)
C     -4.3962759151    -1.7301655926     0.5561503178
C     -3.7006133034    -1.6568706336    -0.8039540638
C     -2.2914353018    -2.2846210318    -0.7621742632
H     -3.6165073735    -0.5857419891    -1.0641145128
H     -4.3109255492    -2.1386346153    -1.5884434742
C     -1.5401221271    -2.1080852602    -2.0912002673
H     -2.3733538694    -3.3629982859    -0.5263607880
H     -1.7205408762    -1.8234457478     0.0631236777
C     -0.1426340443    -2.7750062967    -2.1167994471
H     -1.4409683843    -1.0302702984    -2.3192156367
H     -2.1376084021    -2.5445100448    -2.9135387059
C      0.8308111811    -2.1901382095    -1.0886102479
H      0.2850746706    -2.6774043317    -3.1309728657
H     -0.2350443482    -3.8503366279    -1.8938057671
O     -3.9514861688    -1.1218224471     1.5479925772
O      1.0472731497    -2.7360474487     0.0094287651
N      1.4107917912    -1.0125491419    -1.4473614071
C      2.3600372876    -0.2842897014    -0.6026153755
H      1.2265218252    -0.6444557057    -2.3783153657
C      3.8313713794    -0.6046912468    -0.9296018132
H      2.1383083427    -0.5501952968     0.4442283363
H      2.1701682393     0.7968666946    -0.7263452320
C      4.7982342814     0.1845263401    -0.0284675330
H      4.0313050071    -0.3631158780    -1.9912361767
H      3.9882186895    -1.6925953018    -0.8151552266
C      6.2888603636    -0.0237216903    -0.3659628517
H      4.6209400558    -0.0902920987     1.0298674924
H      4.5617239141     1.2630692764    -0.1098357838
C      6.7994049969    -1.4500946196    -0.0991706853
H      6.8896205546     0.6888438052     0.2298885332
H      6.4654247951     0.2360002141    -1.4283149741
C      8.3134649326    -1.6238255664    -0.3247810932
H      6.2856733664    -2.1731592425    -0.7590344307
H      6.5480878908    -1.7476958179     0.9381741751
N      9.1295657087    -0.8802246252     0.6389586662
H      8.6032477698    -1.2649946588    -1.3259443850
H      8.5773244556    -2.6957547437    -0.2605798854
H     -9.6200994410     1.1210594136     0.7444287424
H     -6.0963427214    -3.8304906464     2.1153042139
H     -9.4173956107    -1.1474775176     1.8003771645
H     10.4352806611     0.3125362360     2.4339189680
H     -8.7219509309     3.2023353522    -0.0460880153
H     -8.0077428242    -0.5095476799    -0.2490769027
H     -8.3008945127    -3.1946282534     2.4118570678
C     10.9040058938     2.2083523332     1.4514161917
C     -4.3073681876     3.2473130482    -0.1666521106
C     10.8314019018     0.6696517927     1.4665243886
C     10.0121978826     0.0993132312     0.3028029390
C     -8.5331515993     1.2529888276     0.9054361400
C     -8.3097873943    -1.1184621880     1.8192144819
C     -6.2821892384    -2.7810921600     1.8168151112
C     -7.8010760050    -2.5644958015     1.6528050965
C     -7.8248071170    -0.1058883011     0.7662421131
C     -5.6365376464     2.6763207608    -0.6629242259
C     -8.0425677195     2.3303076021    -0.0791702243
N     -5.5141271481    -2.5017733705     0.5990496752
N     -6.6787027694     2.7847068619     0.2041038575
O     -5.7415507182     2.1591813254    -1.7910327767
O     10.1730058815     0.4956494108    -0.8657676479
H     -6.5113226745     3.2417340355     1.0986206581
H     -8.0348248002    -0.7537342637     2.8284383060
H     -5.8693018370    -2.1357171698     2.6093215822
H     -8.4210767701     1.6322151005     1.9407534482
H     -8.0388245318     1.9461702295    -1.1121928438
H     -8.1198620412    -2.9665649616     0.6714507434
H     -6.7330955436     0.0364742241     0.8545878972
H     11.8496841899     0.2500257693     1.3610461998
H     -5.7893192629    -2.9937471367    -0.2491438429
C     -3.8042207911     4.4066397476    -1.0524027464
H     -3.5731896211     2.4208073642    -0.1961711060
H     -4.3852508925     3.5774966385     0.8848003006
H      9.0677647801    -1.1525720074     1.6183543340
C      9.5622035410     2.8852444593     1.7693561019
H     11.2659855714     2.5323638571     0.4598707069
H     11.6660467420     2.5273538137     2.1854736156
H      9.1816221713     2.5710389474     2.7573836844
H      8.7933096988     2.6307996239     1.0179595354
H      9.6628873034     3.9839195091     1.7813760982
C     -2.4199078602     4.9106214729    -0.6198980893
H     -4.5339248523     5.2373351828    -1.0150403028
H     -3.7726225448     4.0616983029    -2.1010401856
H     -1.6666580570     4.1053478938    -0.6807167582
H     -2.4331669135     5.2792658754     0.4212423527
H     -2.0788320864     5.7395302701    -1.2636546136
