84
nylon66 config_45900 from config_45900.mcos (coord_rad bohr -> angstrom)
C      2.7508731182    -0.4860210647     0.2805129621
C      1.4190221788    -0.6313541537    -0.4570457046
C      0.2135294920    -0.5425417628     0.5022530767
H      1.4280794973    -1.6257391730    -0.9403024542
H      1.3245599344     0.1227098992    -1.2583579777
C     -1.1186897436    -0.8125033954    -0.2150332184
H      0.1842683948     0.4620095629     0.9660475318
H      0.3564828444    -1.2693398901     1.3224984878
C     -2.3265775242    -0.7168896799     0.7399669189
H     -1.0909491574    -1.8184705637    -0.6758954336
H     -1.2586830118    -0.0879728253    -1.0376519161
C     -3.6566569519    -0.8456231709    -0.0042452819
H     -2.3282606924     0.2760044999     1.2268874138
H     -2.2433683050    -1.4742015429     1.5393771497
O      3.1176187318    -1.3167918503     1.1321002222
O     -3.9945241181    -0.0277933576    -0.8799909589
N     -4.4245781692    -1.9128054014     0.3421209457
C     -5.7342242948    -2.1956403848    -0.2491126144
H     -4.0918716155    -2.5292991174     1.0799685429
C     -6.9092738557    -1.7090495900     0.6200188166
H     -5.8093417153    -3.2856781695    -0.4125496310
H     -5.7604358250    -1.7011679094    -1.2341301193
C     -8.2690269513    -2.0357922397    -0.0207117135
H     -6.8148019111    -0.6174169473     0.7740238965
H     -6.8436750124    -2.1781639119     1.6203518261
C     -9.4590766319    -1.5577233343     0.8314596183
H     -8.3502772504    -3.1296942058    -0.1768210939
H     -8.3095669904    -1.5769048003    -1.0277304610
C    -10.8409050504    -1.9257348147     0.2559901171
H     -9.3952554256    -0.4612770287     0.9754109886
H     -9.3727895114    -1.9975059989     1.8436190803
C    -11.2105918190    -1.2127632816    -1.0617379759
H    -11.6245989724    -1.7011701262     1.0024482869
H    -10.8871186133    -3.0164338248     0.0718783077
N    -11.3348528926     0.2422870645    -0.9283345095
H    -12.1790665855    -1.5921648995    -1.4270432248
H    -10.4559220847    -1.4125219385    -1.8414320381
H      9.8925585777     2.0458159647     0.1877051721
H      4.8146332092     2.0002673099     0.7829822462
H      7.3382759140     2.0112689339     0.4760667956
H    -11.4280795329     2.7607748729    -0.7948727001
H     10.9390266012     1.1255020566    -1.9321226870
H      8.4038884094     1.1036140808    -1.6310403671
H      5.8469041266     1.0821717272    -1.3475429645
C    -12.9283010966     2.9325514751     0.7855326586
C     14.4496459655     0.7386304897     0.8405625889
C    -12.4477675864     2.3952894208    -0.5784527778
C    -12.5111881274     0.8694621168    -0.6582306510
C      9.8722017196     0.9618094079    -0.0349109152
C      7.3229626172     0.9274488744     0.2461972081
C      4.7897974400     0.9215822338     0.5439801986
C      5.9676331523     0.5585339827    -0.3798181475
C      8.5188081226     0.5834075248    -0.6595318569
C     13.1669633784     0.1283537177     0.2660410898
C     11.0537199801     0.6133039567    -0.9600703362
N      3.4846960182     0.6120567470    -0.0432437824
N     12.3520142199     0.9914144544    -0.3973049819
O     12.8941979376    -1.0774292664     0.4107626154
O    -13.5777865041     0.2497227103    -0.4901907479
H     12.6328884490     1.9671151696    -0.4629797380
H      7.4348832849     0.4038749679     1.2160703886
H      4.8602996053     0.3616303210     1.4908784319
H     10.0042088826     0.4367176237     0.9299122110
H     11.0826223535    -0.4724950905    -1.1489604888
H      5.9328099578    -0.5254210474    -0.5989819382
H      8.5079500197    -0.5010369075    -0.8857885749
H    -13.1098475044     2.7833222064    -1.3755771821
H      3.1261634722     1.2378867110    -0.7610217137
C     15.7111537928    -0.0604617913     0.4574644870
H     14.3297294500     0.7346463724     1.9400564505
H     14.5545734802     1.7933847026     0.5300364171
H    -10.5023018743     0.8122634116    -1.0559431824
C    -12.9756435762     4.4667629446     0.8228796847
H    -12.2574622173     2.5588051894     1.5819196750
H    -13.9290749501     2.5157354371     0.9952383895
H    -11.9794918088     4.9053343888     0.6343773403
H    -13.3201494563     4.8306607729     1.8060633591
H    -13.6660466038     4.8619350756     0.0568755840
C     16.0527601671     0.0186419100    -1.0382903401
H     15.5640814161    -1.1130377242     0.7571229416
H     16.5585422561     0.3217948733     1.0549668209
H     15.2488379418    -0.4135613996    -1.6606068327
H     16.9802448736    -0.5343800084    -1.2644857953
H     16.1980335723     1.0653966310    -1.3590653231
