84
nylon66 config_40740 from config_40740.mcos (coord_rad bohr -> angstrom)
C     -2.2515647297     3.7111454218    -1.6489673377
C     -1.4115630509     4.8855437639    -1.1325797623
C     -1.1805970798     4.8519803746     0.4029970528
H     -1.9182166123     5.8147386760    -1.4337904593
H     -0.4401231874     4.8533893370    -1.6578499909
C      0.1386418227     5.5105196593     0.8499417746
H     -1.1966478738     3.8074772505     0.7567216537
H     -2.0219794940     5.3596493721     0.9070349646
C      1.4273201858     4.8244121066     0.3226855415
H      0.1708687388     5.5313059444     1.9546818845
H      0.1653277290     6.5663208067     0.5226294598
C      1.5122703933     3.3404810537     0.6760170205
H      2.3059516388     5.3647840323     0.7161473736
H      1.4747663883     4.8902728242    -0.7767990324
O     -3.3895809139     3.8636008537    -2.1364648561
O      0.9160474575     2.4672289162     0.0062760410
N      2.2526345887     3.0391484778     1.7709338628
C      2.4294034883     1.6860402031     2.3073959484
H      2.7082466977     3.8046237803     2.2655997589
C      3.8978477815     1.2230208020     2.2961911731
H      1.8037938388     1.0196588231     1.6925239646
H      2.0373658064     1.6614454392     3.3408045483
C      4.4917561726     1.0425885512     0.8896634461
H      3.9465985738     0.2649278966     2.8478492716
H      4.5115505615     1.9420753660     2.8735974805
C      5.9618788218     0.5908939762     0.9133036943
H      4.4107837635     1.9940465996     0.3291259382
H      3.8884167954     0.3000186630     0.3313083432
C      6.5595825812     0.4196768545    -0.4928402620
H      6.0391631801    -0.3640400396     1.4696580170
H      6.5639969684     1.3299769317     1.4787952909
C      8.0331331953    -0.0332619236    -0.5009817435
H      6.5014833446     1.3813043439    -1.0384697949
H      5.9599141518    -0.3070973300    -1.0729328036
N      8.2399674585    -1.3816390640     0.0371511877
H      8.6483731417     0.6640819355     0.0952838143
H      8.4196604272    -0.0311108241    -1.5331038915
H     -4.0735108242    -3.5463159596    -0.8059537749
H     -3.0215572939     1.4664740478    -2.7054511900
H     -4.3241485595    -0.6205907826    -1.9742460359
H      9.4249964718    -4.2651507044    -0.4260581798
H     -6.3590556814    -3.9233824745    -1.5703273337
H     -5.0794416709    -0.8946313032     0.4295554747
H     -3.7326542155     1.1943492012    -0.3123422387
C      7.3329090409    -4.7983490149    -0.1688456216
C     -9.4471855154    -1.9794766106     0.2466845705
C      8.5100877486    -3.8151684223     0.0029265822
C      8.2767948863    -2.4984084303    -0.7385354985
C     -4.8636547821    -2.9189252098    -0.3502491172
C     -3.5961610701    -0.8099730999    -1.1615060820
C     -2.2788535986     1.2426722434    -1.9214723618
C     -2.9612195404     0.5260206427    -0.7396028940
C     -4.2813563271    -1.5379048104     0.0097518423
C     -8.2635825065    -2.8583809434    -0.1718440244
C     -6.0580967972    -2.8913555111    -1.3266131768
N     -1.6409243907     2.5031240623    -1.5417556030
N     -7.2414460852    -2.2097907876    -0.7920412489
O     -8.2600605515    -4.0882204585     0.0184190885
O      8.1294086801    -2.4620612118    -1.9742464492
H     -7.3111606496    -1.2018186323    -0.9078988276
H     -2.8168624514    -1.4689205009    -1.5931162293
H     -1.5070367372     0.5867598974    -2.3631777545
H     -5.1820577745    -3.4373861782     0.5727127074
H     -5.7812483277    -2.3904436427    -2.2701450548
H     -2.2156541018     0.3500739840     0.0591822367
H     -3.5455074794    -1.6712005611     0.8259772235
H      8.7046810341    -3.6377598223     1.0757595242
H     -0.7208638627     2.4674853100    -1.0785710282
C     -9.9193324171    -2.2599740159     1.6865410707
H    -10.2658568497    -2.2059771849    -0.4619966529
H     -9.2011347750    -0.9096490467     0.1239014509
H      8.3689894142    -1.4865856643     1.0402650226
C      7.6126468156    -6.1608188837     0.4813549764
H      7.1344325668    -4.9257404192    -1.2476617101
H      6.4196881584    -4.3540726123     0.2698950354
H      8.5028987696    -6.6387382878     0.0357347912
H      6.7596109414    -6.8480807598     0.3480335092
H      7.7941165075    -6.0594704370     1.5661963787
C     -8.9107726068    -1.8165812972     2.7572587287
H    -10.1232912762    -3.3408534354     1.7833313119
H    -10.8826487219    -1.7416811455     1.8433943384
H     -8.6857329694    -0.7388252231     2.6707862659
H     -7.9570001240    -2.3664151802     2.6668018853
H     -9.3024199449    -1.9980908051     3.7726618366
