84
nylon66 config_85810 from config_85810.mcos (coord_rad bohr -> angstrom)
C     -2.1990139226    -2.0599824608    -0.5996871819
C     -0.7410651225    -1.6415677350    -0.7948281712
C     -0.1902840837    -0.8964970401     0.4408762129
H     -0.6244311988    -1.0153256876    -1.6971067488
H     -0.1693410799    -2.5715720589    -0.9637121743
C      1.2983029226    -0.5178078250     0.3256624875
H     -0.3472423739    -1.5233017781     1.3373124972
H     -0.7804266891     0.0265525825     0.5921706545
C      2.2507279615    -1.7315360135     0.3405248706
H      1.5667607840     0.1394974689     1.1711895293
H      1.4635746167     0.0721987193    -0.5964763736
C      3.7174044367    -1.3057025229     0.4446870863
H      2.0940218748    -2.3721029173    -0.5440980652
H      2.0347759267    -2.3486160710     1.2329745342
O     -2.5327703712    -2.8595121956     0.2944191215
O      4.1310573095    -0.6191192681     1.3970933574
N      4.5222423316    -1.7214449106    -0.5691314269
C      5.9597045041    -1.4480287551    -0.6331726751
H      4.1150814792    -2.2952056854    -1.3043830694
C      6.8116457071    -2.6716747972    -0.2406403846
H      6.1517695575    -0.5980911435     0.0398677432
H      6.2087991979    -1.1319152253    -1.6626077944
C      8.3264681466    -2.4289139888    -0.3917961556
H      6.5139903998    -3.5265926643    -0.8760759593
H      6.5754218418    -2.9576585294     0.8019234816
C      8.9105686971    -1.4058920173     0.5995836976
H      8.5446709265    -2.1027818226    -1.4280189933
H      8.8522746008    -3.3946284028    -0.2600736495
C     10.4373359459    -1.2697582709     0.4753484053
H      8.6527258759    -1.7125990749     1.6329897067
H      8.4410237253    -0.4164367711     0.4416673480
C     11.0622393494    -0.2577874354     1.4561290441
H     10.7090374098    -0.9794949070    -0.5573136514
H     10.9106966424    -2.2534113008     0.6599526721
N     10.6645951871     1.1311080136     1.2043969205
H     12.1613652821    -0.2995186899     1.3873360151
H     10.7749529475    -0.5067692816     2.4933492557
H     -9.5341996799    -0.2287359446    -0.9551279103
H     -4.8989246578    -1.8688001425    -2.4468696349
H     -7.1991193947    -1.0419681111    -1.7039131261
H      9.9200328206     3.5289079760     0.9265332351
H     -9.8076352728     1.9534370499     0.2579532734
H     -7.4603956097     1.1418782899    -0.4603689621
H     -5.1262828327     0.3233310502    -1.1962172407
C     10.5189235923     3.7686271620    -1.1621338400
C    -13.7368390389     0.8484487657     0.2349216523
C     10.8249943732     3.4032640375     0.3056324443
C     11.3943880980     1.9909550264     0.4438992315
C     -9.1478725793    -0.1187717227     0.0757578645
C     -6.8290938041    -0.9278987335    -0.6658085681
C     -4.5335338917    -1.7560035195    -1.4103820178
C     -5.3181874417    -0.6424734193    -0.6907469856
C     -7.6381538397     0.1718780665     0.0445148189
C    -12.2845948149     1.2697446001     0.0068789981
C     -9.9352097534     0.9961815665     0.7896445228
N     -3.0922885639    -1.5007417771    -1.4589152338
N    -11.3732103326     0.7277739522     0.8585337777
O    -11.9723944233     2.0718843178    -0.8929120701
O     12.4593342306     1.6592480302    -0.1091432911
H    -11.6995950916     0.0649733242     1.5581088215
H     -7.0112839120    -1.8986502132    -0.1639324495
H     -4.6760665090    -2.7183942232    -0.8919073675
H     -9.3338662328    -1.0816799288     0.5890062155
H     -9.5588980381     1.1257064086     1.8204350152
H     -4.9344947410    -0.5424396768     0.3420284594
H     -7.2652411709     0.2895284860     1.0812337086
H     11.5917440962     4.0960810434     0.7003749716
H     -2.7486437158    -0.8379872861    -2.1503165770
C    -14.6352086572     2.0406932701     0.6270183199
H    -13.8048373444     0.0533954336     0.9988614025
H    -14.0982333484     0.4189359915    -0.7181452226
H      9.8050315338     1.4717371252     1.6276037008
C     10.0529825134     5.2235512110    -1.3150560863
H      9.7438810946     3.0836093043    -1.5544675233
H     11.4275052888     3.5949567876    -1.7653618683
H     10.8255940183     5.9279770879    -0.9594994519
H      9.1325970134     5.4146516779    -0.7349783376
H      9.8386683429     5.4640121180    -2.3705278012
C    -16.1128720799     1.6411901802     0.7465986119
H    -14.5165241556     2.8357106096    -0.1301586108
H    -14.2821765325     2.4628509383     1.5867058870
H    -16.7374555728     2.5060904133     1.0288187851
H    -16.2575957745     0.8596108439     1.5135881436
H    -16.4968139995     1.2467470138    -0.2107289120
