84
nylon66 config_64680 from config_64680.mcos (coord_rad bohr -> angstrom)
C      0.9540845387    -1.8757861405     2.0715795502
C      0.8925487912    -0.5295997731     2.7886063328
C      0.1898405468     0.5224469375     1.9024749338
H      1.9285210884    -0.2131950644     3.0000185273
H      0.3659982494    -0.6234226945     3.7550020433
C      0.0885033870     1.9036398237     2.5670364839
H     -0.8264856443     0.1648415784     1.6513053504
H      0.7381628035     0.6031815098     0.9458572256
C     -0.6664029750     2.9270782470     1.6911151829
H      1.0986157433     2.2940071928     2.7884478867
H     -0.4377828905     1.8114701510     3.5352124946
C      0.1224727787     3.3053741691     0.4345195852
H     -0.8129378593     3.8597242607     2.2649240999
H     -1.6644454891     2.5392318750     1.4222284215
O      1.7634903839    -2.0926607507     1.1438241927
O      1.2364833092     3.8616296089     0.5214290788
N     -0.4680544532     2.9957271266    -0.7477945944
C      0.1428761196     3.2916089868    -2.0469569661
H     -1.3767967511     2.5170687422    -0.7339786608
C      0.2625881185     2.0554950257    -2.9571192084
H      1.1373088701     3.7172964505    -1.8351047950
H     -0.4517297292     4.0710644720    -2.5606972644
C      1.1248320392     0.9204889744    -2.3788275579
H      0.6858083554     2.3984849449    -3.9212930541
H     -0.7483340648     1.6674583688    -3.1880646185
C      1.2594191946    -0.2664189047    -3.3508875590
H      0.6720263816     0.5664544016    -1.4334372771
H      2.1234024969     1.3134674200    -2.1148438855
C      1.8113961002    -1.5726995527    -2.7445861445
H      1.8872826788     0.0305261428    -4.2141027891
H      0.2588653889    -0.4911152993    -3.7701623192
C      3.2809871937    -1.5582009070    -2.2791907645
H      1.7270835150    -2.3699840192    -3.5070286046
H      1.1703646397    -1.8925393824    -1.9011200156
N      3.4892554395    -0.9089415695    -0.9813695159
H      3.9225373096    -1.0355993394    -3.0079878146
H      3.6426841200    -2.6029386265    -2.2134641595
H     -2.4368098877    -2.9794480833    -2.7541537065
H      0.6471605358    -4.2470754925     1.1316556582
H     -1.4153152634    -2.2740472573     0.1693547527
H      4.3622087888     1.6194918622     0.6432967511
H     -2.9700882380    -0.6535557136    -2.9915070128
H     -3.8217900504    -2.9607783874     0.0125772118
H     -2.3387424576    -3.9523048849     1.8847343178
C      5.9623647594     0.2911801753     1.2758353707
C     -5.3613556955     1.2824156701    -0.0163098025
C      4.5625938430     0.5317728796     0.6738623650
C      4.4534003287     0.0192668469    -0.7637757380
C     -3.2047697176    -2.6025048945    -2.0534600473
C     -1.6786936631    -3.3155794146    -0.0943249087
C     -0.1730513101    -4.0990974419     1.8521295658
C     -1.5440984895    -4.2028533657     1.1545549138
C     -3.0868542398    -3.3580129363    -0.7138873543
C     -4.0868220313     0.7802628787    -0.6901951147
C     -3.0377017093    -1.0765231567    -1.9709204853
N      0.0381880442    -2.7897000041     2.4762658442
N     -4.1536710645    -0.4502600413    -1.2516421514
O     -3.0401740817     1.4633728261    -0.7028477655
O      5.2120836888     0.4463439116    -1.6592379905
H     -5.0524895076    -0.9294193040    -1.2618073185
H     -0.9374270273    -3.6400438015    -0.8509225798
H     -0.0869508063    -4.8781970265     2.6305894264
H     -4.1802647038    -2.8300585361    -2.5249057684
H     -2.1075687356    -0.7984724878    -1.4490682812
H     -1.7030995133    -5.2622943389     0.8778904139
H     -3.3745312593    -4.4127709405    -0.8889187686
H      3.7875360409     0.0699614027     1.3098827484
H     -0.5794947886    -2.5343831053     3.2450789133
C     -5.1865069579     1.4657404697     1.5065116188
H     -6.2080324636     0.6038178620    -0.2222177267
H     -5.6029962706     2.2592134119    -0.4751421590
H      2.9188314317    -1.2333977515    -0.1872733105
C      6.1142050223     0.9145869995     2.6709842743
H      6.7180745158     0.7099807767     0.5883035189
H      6.1542166196    -0.7972940889     1.3300808062
H      5.9591838675     2.0075170347     2.6365873019
H      7.1213944964     0.7305923036     3.0829947623
H      5.3804057223     0.4950002639     3.3821677406
C     -6.4360414465     2.0674086657     2.1650032339
H     -4.3126570313     2.1162419320     1.6867119865
H     -4.9534416275     0.4875097354     1.9668458238
H     -7.3200181777     1.4226074460     2.0143134129
H     -6.6690551131     3.0607720052     1.7426996169
H     -6.2923676274     2.1891471583     3.2522529157
