84
nylon66 config_14660 from config_14660.mcos (coord_rad bohr -> angstrom)
C      1.4794726344    -2.9478172018     1.1256062488
C      0.0496873738    -3.4394622378     0.8967279033
C     -0.7519530693    -2.4815655131    -0.0092956918
H     -0.4336314089    -3.4919822410     1.8897960911
H      0.0437303645    -4.4596318371     0.4736857946
C     -2.2227142064    -2.9050393278    -0.1485635387
H     -0.2838410162    -2.4437330997    -1.0116828671
H     -0.6899689990    -1.4610227945     0.4102363583
C     -3.0245749625    -1.9434903436    -1.0492464602
H     -2.6893524125    -2.9460943231     0.8546194375
H     -2.2846788105    -3.9244548316    -0.5708122298
C     -4.4498999826    -2.4403264199    -1.2987597177
H     -2.5319338271    -1.8757719550    -2.0377065246
H     -3.0379463376    -0.9291136207    -0.6147203991
O      1.7126151753    -1.8687584076     1.7014099921
O     -4.6759135100    -3.5458859955    -1.8320135978
N     -5.4437098035    -1.6114063990    -0.8980942842
C     -6.8619862202    -1.9533519323    -1.0775937589
H     -5.2008384203    -0.6995202781    -0.4936854517
C     -7.7659649468    -0.9125398255    -0.4029596587
H     -7.0398388705    -2.9565466833    -0.6507864370
H     -7.0903293884    -2.0268776471    -2.1590235526
C     -7.7055294968     0.4788010565    -1.0641526900
H     -7.4736031985    -0.8302218839     0.6622354396
H     -8.8020225436    -1.2973602602    -0.4095052569
C     -8.2473714230     1.6002488262    -0.1592189154
H     -8.2578628778     0.4626988997    -2.0231921662
H     -6.6540359772     0.7049465675    -1.3142920247
C     -7.8816266238     3.0224527151    -0.6249428349
H     -7.8555406775     1.4518529519     0.8653458483
H     -9.3477674221     1.5221972928    -0.0744377217
C     -6.3651300001     3.3174518700    -0.6471027759
H     -8.3799557449     3.7604076616     0.0315537927
H     -8.2668563809     3.2066640972    -1.6461081800
N     -5.7135785900     3.1267568242     0.6524921582
H     -6.1973137428     4.3607006046    -0.9689724263
H     -5.8440103979     2.6609336003    -1.3597827141
H      8.4697580537    -2.0775619019     0.5965102995
H      3.9987130787    -2.6749507582     1.5191675511
H      6.5119552878    -3.6130989682    -0.1848973684
H     -5.1280954396     2.3039280464     3.1041965528
H      9.4268094530     0.1090413491     1.1016603517
H      6.1092631901    -1.6883143244     1.3896501141
H      3.9383880198    -2.0594910550    -0.9230300053
C     -3.2014066689     3.1695663636     2.5663824176
C      7.6189912570     3.4264339446    -0.4609944764
C     -4.3171959384     2.1119067081     2.3777252003
C     -4.9030586192     2.0827318924     0.9635411663
C      7.8928788411    -1.1923906721     0.2653317125
C      5.9898819493    -2.7034932709    -0.5429930176
C      3.8905338390    -3.4494381945     0.7441777668
C      4.4731351839    -2.9733256373    -0.6015847859
C      6.3881789629    -1.5023739059     0.3342331955
C      8.3789561902     2.1394008696    -0.1383748348
C      8.3303829495     0.0020268652     1.1363119933
N      2.4625176415    -3.7616084440     0.6558870867
N      7.7544795785     1.2825796799     0.7134985026
O      9.4967713046     1.8996428906    -0.6313603240
O     -4.6262144793     1.1756237072     0.1491515696
H      6.8416984960     1.5441543546     1.0772344278
H      6.3560901056    -2.5285056872    -1.5730573806
H      4.4260648970    -4.3536633241     1.0866236853
H      8.1895405701    -0.9986173622    -0.7828088725
H      8.0364131594    -0.1660486101     2.1877049861
H      4.2674067958    -3.7441863290    -1.3675990602
H      5.8093228979    -0.6156582175     0.0098023609
H     -3.9196820473     1.1039318395     2.5763061942
H      2.1915601517    -4.6175037550     0.1766966299
C      7.2858153519     3.5463771849    -1.9632750125
H      8.2743887977     4.2670912364    -0.1657436517
H      6.6957788507     3.5034659453     0.1408040839
H     -5.9091906375     3.8127149973     1.3803375694
C     -1.9762780598     2.9475513709     1.6680431256
H     -2.8940701244     3.1449112646     3.6275352572
H     -3.6162390512     4.1795578094     2.3929514098
H     -2.2359854312     3.0228490284     0.5975987510
H     -1.5366893508     1.9485748024     1.8345736322
H     -1.1951992550     3.6987574771     1.8747102227
C      6.6213418738     4.8872169338    -2.3066780652
H      6.6209098585     2.7124483653    -2.2570157910
H      8.2183047314     3.4250288952    -2.5423189591
H      6.3908017632     4.9528996297    -3.3838547085
H      7.2814071973     5.7349168690    -2.0512648346
H      5.6747472278     5.0207162659    -1.7532905907
