48
evoh config_8790 from config_8790.mcos (coord_rad bohr -> angstrom)
C      4.4046365115     2.0319395474    -0.4530320017
C      4.1667141368     0.5936892422     0.0479674645
C      3.1662607073    -0.1887804757    -0.8100030288
C      2.8078684578    -1.5897284068    -0.2686769641
C      1.9495697778    -1.6099132923     1.0151841854
C      0.5025248987    -1.0969484479     0.8621592827
H      2.4409780088    -0.9993667388     1.7982203308
H      1.9080235967    -2.6402416994     1.4166867254
C     -0.3721592640    -2.0304674091     0.0179799633
C     -1.8287191691    -1.5658876619    -0.1935097478
C     -1.9414721414    -0.2973853423    -1.0463533356
C     -3.3825479984     0.2013814892    -1.2780961094
C     -4.1546908802     0.5977889618    -0.0104054096
H     -3.9504910891    -0.6049289970    -1.7809215228
O     -3.3606688000     1.3719296142    -2.1422674012
C     -3.5027460576     1.6820483243     0.8674087660
H     -4.3230114914    -0.3160250721     0.5903027563
H     -5.1566695198     0.9426249864    -0.3316457412
C      3.2050718124     2.9724000649    -0.2527717461
H      3.4610296994     4.0034769035    -0.5506326985
H      2.8927755678     2.9999749183     0.8062781831
H      2.3326724792     2.6635892007    -0.8522855439
C     -4.4084447629     2.1003938679     2.0368265633
H     -3.2650125602     2.5623778932     0.2434873428
H     -2.5393344065     1.3141512595     1.2664787214
H     -3.9358801765     2.8845417515     2.6534994049
H     -4.6304313707     1.2437590769     2.6992075057
H     -5.3726293546     2.4958295522     1.6710344552
H     -2.2931017020    -1.3899917039     0.7952918737
O     -2.5698060908    -2.6030845042    -0.8925312375
H      0.5160933314    -0.0876921087     0.4041714001
O     -0.1322437908    -1.0095477992     2.1670682473
H      3.8001420877     0.6441854600     1.0959088741
O      5.4083613614    -0.1607781491     0.0203589851
H     -1.4787363334    -0.5024490388    -2.0322600308
H     -1.3528727398     0.5104393344    -0.5780753791
H     -0.3909551675    -3.0189428089     0.5175849313
H      0.0951029333    -2.1764702623    -0.9725913314
H      3.6070641065    -0.2903475778    -1.8206523345
H      2.2541383889     0.4221498454    -0.9331547692
H      4.6967615691     1.9927676350    -1.5203027496
H      5.2769992576     2.4395236076     0.0935205298
H     -2.9291545321     1.1083747899    -2.9755319652
H     -2.5669110578    -3.3951207390    -0.3244737898
H      6.0320925996     0.2857673314     0.6214805904
H      0.3938624989    -0.3899198409     2.7051830484
H      3.7470650058    -2.1357411620    -0.0696469046
H      2.2940527600    -2.1576318590    -1.0652579537
