48
evoh config_9820 from config_9820.mcos (coord_rad bohr -> angstrom)
C     -5.0977230473     1.3818875354    -0.6873563965
C     -5.2062035571     0.0465477758     0.0715380697
C     -4.1911316125    -1.0147690609    -0.3822239965
C     -2.7074050034    -0.6202502912    -0.2427216734
C     -1.7723295468    -1.7901604057    -0.6010682858
C     -0.2724640819    -1.4341678201    -0.6157112464
H     -2.0243631465    -2.1700366695    -1.6097239837
H     -1.9347621439    -2.6303221691     0.1038559691
C      0.2723589935    -1.0638407809     0.7754126275
C      1.7585972670    -0.6509692118     0.8108509934
C      2.0193296649     0.7083814114     0.1513778206
C      3.5020825277     1.1306154089     0.0817570865
C      4.3259770195     0.2950019628    -0.9044632084
H      3.9374621499     1.0540624497     1.0967377723
O      3.5933855232     2.5093981662    -0.3731337681
C      5.8400621754     0.5894710023    -0.8968516232
H      3.9123723821     0.4725276168    -1.9163339147
H      4.1637862998    -0.7770148142    -0.6836521520
C     -6.2098123300     2.3832822886    -0.3363772175
H     -6.0964309859     3.3176500001    -0.9106843570
H     -6.1901504546     2.6632508181     0.7323494035
H     -7.2092525414     1.9686294358    -0.5595074939
C      6.5646184140     0.1066903049     0.3708369823
H      5.9960422444     1.6751923899    -1.0289130111
H      6.2935750703     0.1031667541    -1.7804960223
H      7.6485564338     0.3066024792     0.3109006104
H      6.4315564026    -0.9806187883     0.5143038905
H      6.1886021047     0.6099228574     1.2789527639
H      2.3533024027    -1.4352373527     0.3050513436
O      2.2032684022    -0.5284990345     2.1892031936
H     -0.1144584542    -0.5943116776    -1.3160268187
O      0.4934455009    -2.5230060269    -1.1951529639
H     -6.2233347679    -0.3677010591    -0.1045305403
O     -5.0236048403     0.2255317057     1.5029451093
H      1.4603387990     1.4725573193     0.7260642192
H      1.6056942602     0.7105022214    -0.8742343368
H      0.1395091542    -1.9443065380     1.4365927922
H     -0.3329838480    -0.2473382648     1.2107864391
H     -4.4113036758    -1.2632959418    -1.4371807963
H     -4.3819001669    -1.9330698246     0.2060655822
H     -5.1309320803     1.1580477110    -1.7706809504
H     -4.1092840457     1.8329719701    -0.4840985081
H      3.1781858067     3.0683939009     0.3084950963
H      2.1299394688    -1.4097836376     2.5991356629
H     -5.7366022345     0.8103359114     1.8171027169
H      0.3698369655    -3.3008275328    -0.6183903486
H     -2.5212020962    -0.2807901353     0.7904814705
H     -2.4794972890     0.2371213691    -0.9033146593
