48
evoh config_8680 from config_8680.mcos (coord_rad bohr -> angstrom)
C     -4.6328923540    -1.9142633253     0.0764286343
C     -4.2724649171    -0.4851848442    -0.3516608796
C     -3.0673091288     0.0964552501     0.4078964004
C     -2.7561767414     1.5620332643     0.0530076346
C     -1.6267016418     2.1878839465     0.8980780342
C     -0.2281444935     1.5574873659     0.7347528277
H     -1.8923926515     2.1211252588     1.9700353454
H     -1.5486531086     3.2675053120     0.6602944086
C      0.3474730119     1.7362452651    -0.6812128374
C      1.7330059990     1.0991568227    -0.9157130960
C      1.7012623407    -0.4336469233    -0.8976877935
C      3.0616695772    -1.1118205367    -1.1572909709
C      4.1741461073    -0.7660060785    -0.1460014671
H      3.4108386073    -0.8125364053    -2.1590824864
O      2.8747646527    -2.5490620020    -1.2663537939
C      3.8759296033    -1.1029614491     1.3263119812
H      4.4064057461     0.3128088999    -0.2364638896
H      5.0867885748    -1.3053261033    -0.4655639297
C     -5.1826319384    -2.0182149174     1.5072203205
H     -4.4295332443    -1.7398234210     2.2633522465
H     -5.5032273170    -3.0507459896     1.7271096129
H     -6.0586170591    -1.3602758449     1.6470683231
C      5.0827002916    -0.8313181305     2.2395354331
H      3.5872290252    -2.1681061702     1.4187285131
H      3.0095334063    -0.5154331339     1.6818713199
H      4.8603139557    -1.0884008488     3.2895314232
H      5.3728812569     0.2345943349     2.2100270586
H      5.9595185952    -1.4242402191     1.9251126366
H      2.4287495207     1.4657754875    -0.1365213622
O      2.2336555087     1.4860380312    -2.2237849086
H     -0.2763738464     0.4838841327     0.9852429059
O      0.6725831995     2.1034986805     1.7342824399
H     -5.1536969640     0.1719057271    -0.1804393340
O     -4.0095767352    -0.5537475919    -1.7800730688
H      0.9916807958    -0.7834035589    -1.6709268080
H      1.3055558109    -0.7700829487     0.0783621541
H      0.4254074617     2.8238189515    -0.8838034853
H     -0.3574515950     1.3252497222    -1.4277316108
H     -2.1943174673    -0.5533420543     0.2047594790
H     -3.2712868233     0.0307657418     1.4934590901
H     -3.7395633702    -2.5574692514    -0.0427399491
H     -5.3867022049    -2.2905865067    -0.6388226226
H      2.4985140591    -2.8613183919    -0.4226957367
H      2.3345692388     2.4554485244    -2.2219503064
H     -3.8594998401     0.3558830404    -2.0957283489
H      0.7383014420     3.0639252649     1.5715796769
H     -3.6718655253     2.1672004750     0.2015570062
H     -2.5037137815     1.6523087750    -1.0201720074
