48
evoh config_8440 from config_8440.mcos (coord_rad bohr -> angstrom)
C     -4.5182963460     1.6699873295    -0.8144929460
C     -4.2032688042     0.3409190392    -0.1193833134
C     -2.9323767012    -0.3235236058    -0.6799377856
C     -2.6242984242    -1.6990909498    -0.0623488154
C     -1.4312910147    -2.4290877057    -0.7147655410
C     -0.0559475187    -1.7449480244    -0.5694695619
H     -1.6243716478    -2.5475704267    -1.7977642735
H     -1.3544237542    -3.4518802765    -0.2950957554
C      0.4328828928    -1.6996031469     0.8875593382
C      1.7758070162    -0.9841953030     1.1055091758
C      1.6912347825     0.5347899211     0.8629252282
C      3.0158364120     1.3020512286     1.0469169618
C      4.1382027565     0.9317619968     0.0637693099
H      3.3929909903     1.1165162509     2.0749707871
O      2.7832992534     2.7284788418     0.9004092839
C      3.8037966388     1.0847820286    -1.4312910169
H      4.4546639020    -0.1095269800     0.2665873756
H      5.0102251826     1.5678749636     0.3100427175
C     -5.8694769536     2.2792330521    -0.4116833427
H     -6.0238030804     3.2576659903    -0.8969054712
H     -5.9254431430     2.4276024854     0.6789542098
H     -6.7067883737     1.6215306192    -0.7069939951
C      5.0270472278     0.8234052038    -2.3247027011
H      3.4143609380     2.1019672972    -1.6157862837
H      2.9936589871     0.3861121485    -1.7096789948
H      4.7793566248     0.9451616189    -3.3934078008
H      5.4133331803    -0.2029372047    -2.1865632563
H      5.8487033613     1.5224144783    -2.0880393571
H      2.5275308321    -1.4311637475     0.4270232788
O      2.1444470399    -1.2760407687     2.4822547202
H     -0.1080945794    -0.7229872321    -0.9821255147
O      0.9138289660    -2.4095874087    -1.4216621818
H     -5.0610607749    -0.3539656218    -0.2610050773
O     -4.0671914443     0.6286516426     1.2992822082
H      0.9454568178     0.9490424796     1.5695590202
H      1.3106554456     0.7266412392    -0.1562185149
H      0.5406072257    -2.7390184521     1.2532961929
H     -0.3328691073    -1.2161495424     1.5230329306
H     -2.0856405793     0.3734358981    -0.5260901028
H     -3.0610924531    -0.4388339728    -1.7737766609
H     -4.4937751998     1.4952120022    -1.9056987256
H     -3.6967843406     2.3780070481    -0.5895533828
H      2.0917122523     2.9779555471     1.5406726920
H      3.0790517964    -1.0289774474     2.6031008876
H     -4.0479058893    -0.2224190993     1.7722574251
H      0.9911815272    -3.3307720054    -1.1077433776
H     -3.5187327217    -2.3444045312    -0.1654371606
H     -2.4468857230    -1.5974383685     1.0244840042
