23
UPNBETHEXPIWQX-UHFFFAOYSA-N optimised
C        1.576449      0.639928      0.574024
C        2.855683      0.978852      0.130591
C        3.690050     -0.013880     -0.385693
C        3.267478     -1.340763     -0.463334
C        1.984521     -1.677226     -0.027111
C        1.144160     -0.687219      0.485669
O       -0.084049     -1.102505      0.989433
C       -1.220416     -0.380736      0.702939
C       -2.268815     -0.405847      1.636976
C       -3.475907      0.242404      1.375161
C       -3.630723      0.926295      0.170061
C       -2.605813      0.961901     -0.774771
C       -1.406926      0.303242     -0.504746
Br      -5.283509      1.829295     -0.186539
Br      -2.052536     -1.344019      3.285501
Br       5.447533      0.455299     -0.994652
H        0.922158      1.404397      0.993508
H        3.202975      2.009057      0.199375
H        3.928783     -2.107629     -0.864624
H        1.630094     -2.706923     -0.075723
H       -4.278064      0.214373      2.109924
H       -2.740624      1.489005     -1.718084
H       -0.602503      0.312697     -1.240429
