104
ps config_33110 from config_33110.mcos (coord_rad bohr -> angstrom)
C      5.4480694981    -1.1085911943    -0.1707372621
C      4.2154893071    -0.3503887256     0.3877592366
C      3.2668432721     0.2619303437    -0.6793505399
H      4.5640007561     0.4655214796     1.0497442860
H      3.6293503357    -1.0368123551     1.0271558096
C      2.1700663717     1.0820894676     0.0508785560
C      1.2268221904     1.8966436670    -0.8660425981
H      2.6672036384     1.7713722053     0.7597731892
H      1.5659394652     0.3976006672     0.6737418142
C      0.2001998054     2.7219310255    -0.0340259882
C     -0.8505255891     1.9304585685     0.8009124192
H     -0.3480995596     3.3943072199    -0.7194563835
H      0.7677336370     3.3806324201     0.6490296111
C     -1.8133026083     1.1364925511    -0.1135583057
C     -2.9382717883     0.3557042504     0.6170055938
H     -1.2265631226     0.4292505246    -0.7274272612
H     -2.2859077471     1.8341025558    -0.8311098943
C     -3.8965478233    -0.2382791018    -0.4522920195
C     -5.1529342220    -0.9693042513     0.0944971498
H     -3.3207863391    -0.9397440513    -1.0847763335
H     -4.2201030014     0.5817130236    -1.1218943353
C     -6.1364556625     0.0137638256     0.7774574349
C     -7.3194011965    -0.6787982468     1.4715460973
H     -6.5064203588     0.7360766775     0.0255096712
H     -5.5820818647     0.6107037471     1.5241114179
H     -6.9662358927    -1.3918519983     2.2374669812
H     -7.9407001515    -1.2402643817     0.7531996245
H     -7.9716822585     0.0567027325     1.9738107846
C      6.4298580172    -0.1601303250    -0.8912885390
H      5.0788260769    -1.8481112448    -0.9083278721
C      6.1482463315    -1.8941243193     0.9404853376
H      5.9494978350     0.3353630554    -1.7513532911
H      7.3060557724    -0.7120902790    -1.2727408275
H      6.7942869928     0.6280649733    -0.2100026195
C      6.7255455750    -1.2370250241     2.0450164236
C      7.3603907946    -1.9642898767     3.0582520969
C      7.4340713538    -3.3617568093     2.9923683813
C      6.2280689227    -3.2963285461     0.8835715549
H      7.8032980197    -1.4336164048     3.9099995722
H      6.6798620979    -0.1435676928     2.1135482018
H      3.7727816838     5.4077953637    -4.1830156898
C      3.2705157761     4.6972893929    -3.5169342379
H      2.0946342101     3.7893459478    -5.0935277529
C      2.3313532941     3.7917867745    -4.0226571881
C      3.5598628100     4.6820408005    -2.1467324410
H      4.2940755540     5.3854852283    -1.7357046655
C      1.6910013559     2.8825590135    -3.1709804594
C      2.9215574950     3.7742551441    -1.2937242838
H      0.9572544344     2.1758029456    -3.5775220260
H      3.1625897414     3.7796990387    -0.2240792066
C      1.9762344218     2.8580501412    -1.7944424351
C      6.8643585314    -4.0227467974     1.8988947255
H      7.9321172353    -3.9291447432     3.7866748881
H      6.9147959065    -5.1164227220     1.8326750083
H      5.7838433151    -3.8226493824     0.0295966838
H     -3.3044109768     5.5350240048     4.0865217764
C     -3.1093230508     4.7870775132     2.0565265924
C     -2.8208825069     4.8057647731     3.4268807928
H     -3.8239836035     5.5066137878     1.6389365212
C     -2.4949232249     3.8554071722     1.2117633326
H     -1.6712810916     3.8796807178     5.0122641286
C     -1.9068507471     3.8795857896     3.9411363218
H     -2.7344911852     3.8585774033     0.1417772140
C     -1.5749508021     2.9183848856     1.7211362002
C     -1.2903774239     2.9464299287     3.0977169865
H     -0.5760918433     2.2236923142     3.5107922975
H     -1.0931041020    -3.5011254619     4.0137283030
C     -1.1339352252    -2.7664263395     1.9694345621
C     -1.4575536196    -2.7250624682     3.3315648131
H     -0.5103930311    -3.5799393697     1.5799417547
C     -1.5989271962    -1.7762150517     1.0968609005
H     -2.5182702507    -1.6309324580     4.8703165139
C     -2.2548500701    -1.6784611686     3.8066458987
H     -1.3362988649    -1.8293578054     0.0337681767
C     -2.4026305633    -0.7185947837     1.5645524415
C     -2.7227337512    -0.6870108525     2.9341587788
H     -3.3467974629     0.1285915072     3.3178882513
H     -7.4844867422    -3.8587552490    -3.9074394416
C     -6.9671197903    -1.8792076526    -3.1774730213
C     -7.0204204363    -3.2770974424    -3.1029623301
H     -7.3911711933    -1.3615830935    -4.0465055301
C     -6.3754813818    -1.1348319488    -2.1505773036
H     -6.5105992912    -5.0139019786    -1.9130063778
C     -6.4747164452    -3.9200995684    -1.9866383755
H     -6.3455289113    -0.0411591315    -2.2266588937
C     -5.8230299463    -1.7728128609    -1.0226978789
C     -5.8823186841    -3.1761376342    -0.9576154205
H     -5.4567379005    -3.6886352912    -0.0862138216
H      1.2841233675    -3.5729482396    -4.0237694850
C      1.3669884799    -2.8230726655    -1.9862165189
C      1.6758704085    -2.8009369862    -3.3522160900
H      0.7273803276    -3.6170729299    -1.5827827224
C      1.8672145364    -1.8380905512    -1.1273854380
H      2.7458368033    -1.7461419197    -4.9118633409
C      2.4937886685    -1.7787189086    -3.8449072132
H      1.6152769461    -1.8762174712    -0.0610188872
C      2.6922376044    -0.8050041865    -1.6125079156
C      2.9966023687    -0.7924962910    -2.9860372105
H      3.6362550170     0.0040430700    -3.3838384186
H      3.8464835770     0.9719254910    -1.2987354803
H      0.6765807515     1.1865236771    -1.5117898241
H     -0.3210806082     1.2097222342     1.4521153601
H     -3.4987045687     1.0889536229     1.2266134796
H     -4.8148321825    -1.6944686835     0.8617293746
