104
ps config_51080 from config_51080.mcos (coord_rad bohr -> angstrom)
C     -6.6347798965    -0.7260127131    -0.3962257483
C     -5.1804786343    -1.2146460074    -0.1689031996
C     -4.0896555449    -0.1086445044    -0.1885238766
H     -4.9266254350    -1.9630813394    -0.9438172790
H     -5.1269078179    -1.7445503063     0.8009013360
C     -2.6998169454    -0.7819033999    -0.0556489286
C     -1.4802675507     0.1545528235    -0.2591179134
H     -2.6396304577    -1.6102716287    -0.7872374520
H     -2.6203089099    -1.2518455060     0.9430003885
C     -0.1853123386    -0.6288187243     0.0776406357
C      1.1184627691     0.2097931308     0.1165357034
H     -0.0585687173    -1.4434828282    -0.6608229130
H     -0.3187042729    -1.1250707630     1.0578946611
C      2.3272843604    -0.7509226041     0.2602273976
C      3.7245900396    -0.0871082251     0.1626411529
H      2.2451851263    -1.5376234742    -0.5135626713
H      2.2549762325    -1.2737981457     1.2330462973
C      4.8022370526    -1.1434296646     0.5328621885
C      6.2666561224    -0.6294906390     0.5876003673
H      4.7415134742    -1.9734083707    -0.1962847282
H      4.5369346307    -1.5794141113     1.5151065403
C      6.4836279228     0.3582465866     1.7614700310
C      7.8721270467     1.0160547313     1.7665262581
H      6.3102943773    -0.1721379731     2.7168400151
H      5.7128964955     1.1484363816     1.7090950751
H      8.0532203205     1.5644669540     0.8250800519
H      8.6761378579     0.2687691984     1.8780033844
H      7.9678153889     1.7362816399     2.5976751577
C     -6.8379306450    -0.1645118902    -1.8197289848
H     -6.8299847201     0.0899410997     0.3273269339
C     -7.6351988466    -1.8435256857    -0.0926422286
H     -6.6067462186    -0.9258172339    -2.5847317313
H     -6.1857118074     0.7053810376    -2.0039915874
H     -7.8805038084     0.1642060216    -1.9708903032
C     -7.6363680804    -3.0421180582    -0.8332143722
C     -8.5537651079    -4.0592165858    -0.5460932668
C     -9.4896927223    -3.9036866882     0.4846574354
C     -8.5786094655    -1.6972212025     0.9390046763
H     -8.5379520294    -4.9850314336    -1.1342158598
H     -6.9129368492    -3.1820103676    -1.6453202850
H     -1.3680873191     2.2853869628    -5.2890602659
C     -1.3893049011     1.8560004730    -4.2811858300
H     -1.5649098772     3.7713490592    -3.2863081903
C     -1.4992945404     2.6840093258    -3.1590320958
C     -1.3070002541     0.4698543390    -4.0964814751
H     -1.2205910221    -0.1948963065    -4.9643082914
C     -1.5267716542     2.1364566146    -1.8694873474
C     -1.3345357466    -0.0762520782    -2.8085501957
H     -1.6139276556     2.7955901800    -0.9981512749
H     -1.2689559805    -1.1642556669    -2.6880761749
C     -1.4446757895     0.7461382851    -1.6703491501
C     -9.4966538146    -2.7164969007     1.2247137682
H    -10.2073555210    -4.7013673506     0.7073137280
H    -10.2240454557    -2.5795399330     2.0341523827
H     -8.5904463225    -0.7694898371     1.5244800670
H      1.0150258675     3.9915765547     4.0582663402
C      0.9635239572     1.8699081625     3.5912790603
C      1.0353828874     3.2313490450     3.2694190692
H      0.8863385591     1.5574941404     4.6395956116
C      0.9898489282     0.9008425209     2.5823487807
H      1.1907958134     4.6676071515     1.6563448729
C      1.1337231288     3.6058501158     1.9251697008
H      0.9317133857    -0.1589732021     2.8579755254
C      1.0891205285     1.2645659103     1.2252135345
C      1.1607741003     2.6350141896     0.9151686522
H      1.2386659122     2.9408338635    -0.1344784129
H      4.6898513306     2.1420040933    -4.7291050588
C      4.1887397284     0.3305081523    -3.6390271087
C      4.4924334801     1.6935922224    -3.7490018835
H      4.1471592660    -0.2958109148    -4.5381625517
C      3.9365050894    -0.2413300399    -2.3871993428
H      4.7764910629     3.5427188832    -2.6578070648
C      4.5403535973     2.4739291731    -2.5889843087
H      3.7030055971    -1.3108232565    -2.3237780584
C      3.9809923605     0.5336809160    -1.2119180236
C      4.2879261176     1.9011015571    -1.3354142298
H      4.3254011780     2.5232225867    -0.4334542201
H      9.7100774461    -4.8627278062     0.7305947248
C      8.1201621510    -3.7954966403     1.7561911647
C      9.0207197858    -4.0112555342     0.7050521683
H      8.1027179584    -4.4828143259     2.6107614458
C      7.2397130358    -2.7080279391     1.7258840268
H      9.7294769079    -3.2789453256    -1.2064919535
C      9.0289394877    -3.1241579754    -0.3768066396
H      6.5442927379    -2.5550550356     2.5600411122
C      7.2399541248    -1.8093911786     0.6410427524
C      8.1479709240    -2.0350028600    -0.4085459793
H      8.1608342132    -1.3447826495    -1.2609043096
H     -4.9978670127     3.6772489136     3.6425952314
C     -4.5273441976     1.5946227904     3.2396654491
C     -4.8115622762     2.9171544734     2.8756384597
H     -4.4899507337     1.3138122829     4.2990032935
C     -4.2895446430     0.6247901097     2.2596687614
H     -5.0741893481     4.2843154236     1.2164870114
C     -4.8539899775     3.2532626080     1.5184522829
H     -4.0710800339    -0.4048726703     2.5672385421
C     -4.3292597055     0.9499979191     0.8897540391
C     -4.6158902455     2.2816064927     0.5374310034
H     -4.6482558446     2.5577179606    -0.5230672383
H     -4.1218759192     0.3983519861    -1.1716984087
H     -1.5699544552     0.9939054420     0.4566698752
H      1.2159453048     0.7394842329    -0.8502954926
H      3.7564815401     0.7280166023     0.9102005535
H      6.4684343457    -0.0815104651    -0.3547267268
