104
ps config_41740 from config_41740.mcos (coord_rad bohr -> angstrom)
C     -6.6349252500    -0.7255958091    -0.3960969878
C     -5.1805524600    -1.2143521208    -0.1694485711
C     -4.0897627815    -0.1083070137    -0.1884358943
H     -4.9268433524    -1.9621861955    -0.9449920793
H     -5.1267729398    -1.7450079022     0.7999332584
C     -2.6999014002    -0.7816322099    -0.0560316020
C     -1.4803778404     0.1549069382    -0.2591791130
H     -2.6398080058    -1.6096586029    -0.7880119528
H     -2.6203074060    -1.2520523886     0.9423866893
C     -0.1854063807    -0.6286294434     0.0771472776
C      1.1184147799     0.2099018587     0.1163472689
H     -0.0587367198    -1.4429573669    -0.6616993553
H     -0.3187564128    -1.1253312701     1.0571788869
C      2.3271759370    -0.7509343260     0.2597709472
C      3.7245040118    -0.0871637174     0.1623525281
H      2.2450162850    -1.5374399921    -0.5142126572
H      2.2548429871    -1.2740470637     1.2324610430
C      4.8020938752    -1.1436058851     0.5324354420
C      6.2665435603    -0.6297698456     0.5873187942
H      4.7413282956    -1.9734509954    -0.1968619165
H      4.5367254086    -1.5797466041     1.5145925674
C      6.4835163912     0.3577742616     1.7613605981
C      7.8720694462     1.0154638274     1.7666233839
H      6.3100748402    -0.1727587961     2.7166273718
H      5.7128530125     1.1480343383     1.7090714292
H      8.0532789846     1.5640195327     0.8252829185
H      8.6760058591     0.2680866285     1.8780300414
H      7.9677605534     1.7355411540     2.5979010007
C     -6.8383395619    -0.1627698969    -1.8190308828
H     -6.8300752328     0.0896679821     0.3282484627
C     -7.6351411428    -1.8435132962    -0.0933299324
H     -6.1862369643     0.7073666431    -2.0025400674
H     -7.8809689542     0.1659842233    -1.9697300622
H     -6.6071776511    -0.9232967799    -2.5848147103
C     -7.6368731914    -3.0410757846    -0.8355697257
C     -8.5539924947    -4.0586144201    -0.5491122651
C     -9.4890690082    -3.9045626004     0.4826352582
C     -8.5777035922    -1.6986897862     0.9393019444
H     -8.5386283884    -4.9836074046    -1.1385397325
H     -6.9141015327    -3.1798041093    -1.6484628076
H     -1.3682107636     2.2879874989    -5.2881715925
C     -1.3894362867     1.8581508681    -4.2804885126
H     -1.5647120095     3.7730757387    -3.2847316613
C     -1.4992467555     2.6856681901    -3.1579549453
C     -1.3073357329     0.4719046477    -4.0964138145
H     -1.2210759682    -0.1924678180    -4.9645456935
C     -1.5267413275     2.1375382880    -1.8686509240
C     -1.3348882518    -0.0747812633    -2.8087291038
H     -1.6137654872     2.7962950199    -0.9970161149
H     -1.2694653406    -1.1628485605    -2.6887466493
C     -1.4448428915     0.7471187586    -1.6701506563
C     -9.4954670170    -2.7184064681     1.2243542698
H    -10.2065104556    -4.7025866864     0.7047740588
H    -10.2221997154    -2.5826046619     2.0345788547
H     -8.5891069380    -0.7717704991     1.5260715015
H      1.0154085647     3.9903992988     4.0593266833
C      0.9633554278     1.8689028136     3.5916166183
C      1.0356756928     3.2304326621     3.2702246150
H      0.8859147847     1.5561605783     4.6398165024
C      0.9895603275     0.9001672524     2.5823652468
H      1.1918065435     4.6671839260     1.6576546636
C      1.1343633804     3.6053553416     1.9261177712
H      0.9310872693    -0.1597240696     2.8576273170
C      1.0891499644     1.2643155395     1.2253645604
C      1.1612849726     2.6348473382     0.9157927877
H      1.2394514641     2.9409964466    -0.1337375712
H      4.6902610274     2.1427293011    -4.7289475969
C      4.1888677808     0.3310959839    -3.6392255474
C      4.4927285210     1.6941662453    -3.7489360920
H      4.1472591022    -0.2950549826    -4.5384770214
C      3.9364955885    -0.2409394300    -2.3875127409
H      4.7769261074     3.5430689794    -2.6573897072
C      4.5406660893     2.4742931991    -2.5887757721
H      3.7028627320    -1.3104156758    -2.3243019375
C      3.9810067850     0.5338534805    -1.2120883403
C      4.2880979224     1.9012644097    -1.3353238955
H      4.3255765810     2.5232217101    -0.4332516224
H      9.7097294026    -4.8632180040     0.7299268513
C      8.1198582232    -3.7960003461     1.7556113746
C      9.0204166721    -4.0117063975     0.7044598669
H      8.1023683086    -4.4834007239     2.6101141210
C      7.2394677041    -2.7084793980     1.7253999553
H      9.7292298447    -3.2792503329    -1.2070084605
C      9.0286916231    -3.1245050177    -0.3773155303
H      6.5440423806    -2.5555518458     2.5595610632
C      7.2397727635    -1.8097293521     0.6406503987
C      8.1477788430    -2.0352991067    -0.4089613288
H      8.1606824729    -1.3450015845    -1.2612566542
H     -4.9976669832     3.6752635159     3.6450497119
C     -4.5274323548     1.5928244752     3.2408111538
C     -4.8114284098     2.9156350077     2.8776149444
H     -4.4901482782     1.3113288903     4.2999713104
C     -4.2897211438     0.6235800822     2.2602089856
H     -5.0737649646     4.2838916469     1.2193178941
C     -4.8537311647     3.2526150581     1.5206398924
H     -4.0714390596    -0.4063135299     2.5671349694
C     -4.3293010384     0.9496736400     0.8904985681
C     -4.6157229021     2.2815494078     0.5390084818
H     -4.6479990553     2.5583421100    -0.5213154514
H     -4.1220474220     0.3992799162    -1.1713023765
H     -1.5700204073     0.9939495255     0.4569763960
H      1.2159532395     0.7398995645    -0.8503097795
H      3.7564057135     0.7278307797     0.9100557360
H      6.4683992268    -0.0816703451    -0.3549206064
