104
ps config_74080 from config_74080.mcos (coord_rad bohr -> angstrom)
C      6.6349270696    -0.7255963180     0.3960834475
C      5.1805545607    -1.2143517869     0.1694316381
C      4.0897631090    -0.1083087819     0.1884344371
H      4.9268478976    -1.9621955604     0.9449666293
H      5.1267744210    -1.7449961164    -0.7999565628
C      2.6999029409    -0.7816344362     0.0560195551
C      1.4803780277     0.1548998409     0.2591817306
H      2.6398107690    -1.6096726745     0.7879866394
H      2.6203098147    -1.2520385858    -0.9424063176
C      0.1854073361    -0.6286319384    -0.0771588754
C     -1.1184137755     0.2098998302    -0.1163474370
H      0.0587370640    -1.4429713942     0.6616749141
H      0.3187587421    -1.1253182194    -1.0571981537
C     -2.3271753837    -0.7509339360    -0.2597825994
C     -3.7245027970    -0.0871629354    -0.1623563174
H     -2.2450165092    -1.5374485991     0.5141919140
H     -2.2548428791    -1.2740355135    -1.2324786589
C     -4.8020940310    -1.1436000857    -0.5324493651
C     -6.2665427828    -0.6297617519    -0.5873287693
H     -4.7413301292    -1.9734520965     0.1968404452
H     -4.5367252534    -1.5797320222    -1.5146103158
C     -6.4835145556     0.3577919252    -1.7613629582
C     -7.8720665255     1.0154836519    -1.7666204363
H     -6.3100736882    -0.1727340095    -2.7166338484
H     -5.7128500691     1.1480505282    -1.7090674387
H     -8.6760042927     0.2681088162    -1.8780333939
H     -7.9677562935     1.7355680257    -2.5978921176
H     -8.0532752739     1.5640318863    -0.8252754609
C      6.8383421022    -0.1627834807     1.8190224655
H      6.8300754969     0.0896744743    -0.3282545970
C      7.6351432761    -1.8435103640     0.0933043112
H      7.8809718853     0.1659680946     1.9697245990
H      6.6071790569    -0.9233167776     2.5847995963
H      6.1862404904     0.7073521821     2.0025392471
C      7.6368864205    -3.0410743807     0.8355419858
C      8.5540056336    -4.0586099653     0.5490730293
C      9.4890705244    -3.9045537743    -0.4826843000
C      8.5776939794    -1.6986830208    -0.9393379159
H      8.5386504270    -4.9836039238     1.1384992195
H      6.9141233174    -3.1798063755     1.6484421429
H      1.3682010599     2.2878955020     5.2882101341
C      1.3894288249     1.8580759663     4.2805197926
H      1.5647037771     3.7730176747     3.2847952869
C      1.4992400297     2.6856122008     3.1580002329
C      1.3073302612     0.4718327269     4.0964214676
H      1.2210700296    -0.1925544073     4.9645420404
C      1.5267372475     2.1375041001     1.8686869813
C      1.3348853895    -0.0748315768     2.8087276106
H      1.6137621203     2.7962755733     0.9970633863
H      1.2694638648    -1.1628969527     2.6887268478
C      1.4448408103     0.7470877910     1.6701631669
C      9.4954570080    -2.7183967752    -1.2244017658
H     10.2065118929    -4.7025753328    -0.7048318297
H     10.2221802788    -2.5825918348    -2.0346341332
H      8.5890882187    -0.7717627598    -1.5261061409
H     -1.0154038124     3.9904476029    -4.0592787716
C     -0.9633576748     1.8689447513    -3.5915959393
C     -1.0356717580     3.2304708659    -3.2701863856
H     -0.8859208733     1.5562156072    -4.6398000340
C     -0.9895638518     0.9001964754    -2.5823567892
H     -1.1917927527     4.6672020915    -1.6575975812
C     -1.1343544342     3.6053766891    -1.9260744016
H     -0.9310956504    -0.1596915272    -2.8576325337
C     -1.0891486396     1.2643278007    -1.2253512070
C     -1.1612772714     2.6348558481    -0.9157617604
H     -1.2394397178     2.9409920334     0.1337726513
H     -4.6902488854     2.1426816808     4.7289680174
C     -4.1888618152     0.3310583474     3.6392266309
C     -4.4927188772     1.6941282637     3.7489516368
H     -4.1472537378    -0.2951020597     4.5384715467
C     -3.9364925413    -0.2409647244     2.3875075846
H     -4.7769131235     3.5430430569     2.6574249067
C     -4.5406559533     2.4742673949     2.5887994974
H     -3.7028625171    -1.3104408888     2.3242852071
C     -3.9810031607     0.5338405472     1.2120912510
C     -4.2880908262     1.9012510136     1.3353413270
H     -4.3255692481     2.5232177130     0.4332754865
H     -9.7097398291    -4.8631996260    -0.7299730019
C     -8.1198612809    -3.7959813416    -1.7556452306
C     -9.0204245809    -4.0116903698    -0.7044984829
H     -8.1023699743    -4.4833771108    -2.6101516451
C     -7.2394675164    -2.7084632395    -1.7254243680
H     -9.7292427371    -3.2792430377     1.2069712574
C     -9.0287010320    -3.1244951093     0.3772818325
H     -6.5440382799    -2.5555335315    -2.5595818650
C     -7.2397742731    -1.8097189995    -0.6406698194
C     -8.1477852039    -2.0352919212     0.4089370778
H     -8.1606899838    -1.3449991440     1.2612362492
H      4.9976571670     3.6753201200    -3.6449960096
C      4.5274293671     1.5928736206    -3.2407877727
C      4.8114208182     2.9156798748    -2.8775723568
H      4.4901468368     1.3113932857    -4.2999520248
C      4.2897209407     0.6236140915    -2.2601998409
H      5.0737517354     4.2839133604    -1.2192554639
C      4.8537216708     3.2526403997    -1.5205924007
H      4.0714424143    -0.4062758711    -2.5671407256
C      4.3292991363     0.9496881051    -0.8904846609
C      4.6157161869     2.2815598081    -0.5389751149
H      4.6479909285     2.5583372314     0.5213528758
H      4.1220467146     0.3992639096     1.1713083187
H      1.5700203080     0.9939546701    -0.4569594893
H     -1.2159520351     0.7398852858     0.8503163789
H     -3.7564042112     0.7278391903    -0.9100511672
H     -6.4683977478    -0.0816691439     0.3549148280
