104
ps config_18110 from config_18110.mcos (coord_rad bohr -> angstrom)
C     -5.4480707628    -1.1085903147     0.1707350180
C     -4.2154884384    -0.3503917588    -0.3877622194
C     -3.2668435595     0.2619290195     0.6793482609
H     -4.5639977648     0.4655174334    -1.0497495316
H     -3.6293487349    -1.0368175140    -1.0271556006
C     -2.1700681966     1.0820907026    -0.0508799713
C     -1.2268230450     1.8966424500     0.8660423903
H     -2.6672065164     1.7713760873    -0.7597713429
H     -1.5659422266     0.3976040482    -0.6737465542
C     -0.2002019173     2.7219318600     0.0340258652
C      0.8505237780     1.9304594664    -0.8009127129
H      0.3480971478     3.3943082714     0.7194561428
H     -0.7677365825     3.3806326882    -0.6490295170
C      1.8133008789     1.1364950588     0.1135590031
C      2.9382716211     0.3557080984    -0.6170039604
H      1.2265617640     0.4292526790     0.7274281106
H      2.2859046052     1.8341065058     0.8311101328
C      3.8965469039    -0.2382756317     0.4522942913
C      5.1529300560    -0.9693056848    -0.0944956962
H      3.3207837964    -0.9397377267     1.0847801682
H      4.2201052465     0.5817170034     1.1218942466
C      6.1364512634     0.0137580379    -0.7774626037
C      7.3193935064    -0.6788084229    -1.4715524445
H      6.5064194889     0.7360729208    -0.0255185024
H      5.5820761419     0.6106960418    -1.5241171252
H      7.9406941966    -1.2402728870    -0.7532061963
H      7.9716739959     0.0566899354    -1.9738218214
H      6.9662247761    -1.3918643014    -2.2374697786
C     -6.4298559870    -0.1601256414     0.8912857501
H     -5.0788295606    -1.8481105998     0.9083264234
C     -6.1482491059    -1.8941229305    -0.9404871743
H     -5.9494927778     0.3353684649     1.7513484693
H     -7.3060542052    -0.7120827209     1.2727411672
H     -6.7942839863     0.6280691665     0.2099989054
C     -6.7255528873    -1.2370226406    -2.0450152392
C     -7.3603971468    -1.9642873171    -3.0582516924
C     -7.4340724074    -3.3617547101    -2.9923716924
C     -6.2280662627    -3.2963275239    -0.8835767588
H     -7.8033078559    -1.4336130522    -3.9099968529
H     -6.6798734446    -0.1435649408    -2.1135444192
H     -3.7727881711     5.4077790782     4.1830274639
C     -3.2705207909     4.6972763732     3.5169436368
H     -2.0946551504     3.7893135704     5.0935378028
C     -2.3313665066     3.7917650952     4.0226655442
C     -3.5598577256     4.6820411563     2.1467393636
H     -4.2940638344     5.3854929387     1.7357122553
C     -1.6910124738     2.8825415273     3.1709854232
C     -2.9215507473     3.7742597551     1.2937282478
H     -0.9572719033     2.1757788092     3.5775268510
H     -3.1625751828     3.7797143324     0.2240814628
C     -1.9762357599     2.8580455648     1.7944454381
C     -6.8643550889    -4.0227453355    -1.8989007828
H     -7.9321177198    -3.9291425051    -3.7866786955
H     -6.9147883535    -5.1164216210    -1.8326837634
H     -5.7838373465    -3.8226492558    -0.0296041656
H      3.3044171844     5.5350215233    -4.0865198403
C      3.1093234618     4.7870775291    -2.0565242391
C      2.8208867417     4.8057630429    -3.4268794430
H      3.8239828221     5.5066143907    -1.6389330200
C      2.4949212325     3.8554082405    -1.2117618197
H      1.6712902120     3.8796766564    -5.0122650377
C      1.9068567226     3.8795834989    -3.9411365270
H      2.7344864998     3.8585794846    -0.1417751297
C      1.5749499889     2.9183854488    -1.7211360965
C      1.2903809335     2.9464285737    -3.0977175878
H      0.5760968907     2.2236904612    -3.5107946154
H      1.0931126742    -3.5011205380    -4.0137324950
C      1.1339411259    -2.7664236755    -1.9694377290
C      1.4575602508    -2.7250577048    -3.3315677303
H      0.5104000123    -3.5799380099    -1.5799459657
C      1.5989308295    -1.7762128440    -1.0968622873
H      2.5182768705    -1.6309240567    -4.8703170097
C      2.2548555494    -1.6784545502    -3.8066466863
H      1.3363015047    -1.8293577054    -0.0337698556
C      2.4026326309    -0.7185907143    -1.5645521291
C      2.7227371136    -0.6870045427    -2.9341579644
H      3.3467999890     0.1285989287    -3.3178862700
H      7.4844905041    -3.8587470307     3.9074432628
C      6.9671255777    -1.8792009482     3.1774712393
C      7.0204224137    -3.2770911451     3.1029657824
H      7.3911816442    -1.3615738850     4.0464999721
C      6.3754850237    -1.1348278097     2.1505748660
H      6.5105920954    -5.0138991112     1.9130186542
C      6.4747124028    -3.9200962939     1.9866465376
H      6.3455356103    -0.0411546069     2.2266525212
C      5.8230276680    -1.7728117181     1.0227000627
C      5.8823125459    -3.1761368259     0.9576229394
H      5.4567271020    -3.6886371037     0.0862251651
H     -1.2841168027    -3.5729459657     4.0237673176
C     -1.3669788516    -2.8230673062     1.9862152749
C     -1.6758653806    -2.8009356454     3.3522138511
H     -0.7273655329    -3.6170635832     1.5827817959
C     -1.8672065584    -1.8380862170     1.1273838243
H     -2.7458428663    -1.7461486194     4.9118589947
C     -2.4937904290    -1.7787225315     3.8449037811
H     -1.6152646260    -1.8762106508     0.0610181810
C     -2.6922359748    -0.8050045897     1.6125053986
C     -2.9966058100    -0.7925007693     2.9860336655
H     -3.6362642776     0.0040342202     3.3838343909
H     -3.8464857781     0.9719225863     1.2987332807
H     -0.6765804713     1.1865209604     1.5117871198
H      0.3210791569     1.2097225954    -1.4521155385
H      3.4987049795     1.0889578409    -1.2266108473
H      4.8148243210    -1.6944721692    -0.8617243729
