104
ps config_34060 from config_34060.mcos (coord_rad bohr -> angstrom)
C     -5.6684249299    -0.0500879293     0.2083689853
C     -4.2722504115    -0.0960939180    -0.4655875361
C     -3.2118912790     0.8741002016     0.1237995714
H     -4.3846644835     0.1294969048    -1.5433626372
H     -3.8782273860    -1.1280200903    -0.4067122000
C     -1.9219458860     0.7718046041    -0.7339183913
C     -0.8120700281     1.7936757430    -0.3913462342
H     -2.2029015918     0.8875352107    -1.7981957477
H     -1.5113964339    -0.2501867006    -0.6426951997
C      0.4149584018     1.6407655962    -1.3393148873
C      1.2235830839     0.3107724483    -1.2679942667
H      1.1139032863     2.4743590685    -1.1419401777
H      0.0608492669     1.7797938029    -2.3776336428
C      1.8901678529     0.1317417854     0.1186391404
C      2.7629362911    -1.1378389223     0.2853000156
H      1.1028368070     0.1266480741     0.8943054442
H      2.5107217441     1.0208776077     0.3319715990
C      3.3612527810    -1.2131527356     1.7201834535
C      4.4114342651    -0.1327843489     2.0881989104
H      3.8159510587    -2.2109803819     1.8632870131
H      2.5310736280    -1.1520867256     2.4491722344
C      4.7623605666    -0.2698266980     3.5958968026
C      5.6798627192     0.8382873102     4.1320962717
H      5.2235566759    -1.2605648585     3.7689645463
H      3.8138099345    -0.2677451401     4.1663107089
H      6.6678179725     0.8238356166     3.6413570528
H      5.8447958321     0.7238396154     5.2174869408
H      5.2368360562     1.8356542997     3.9630742752
C     -6.3731658881     1.3048688838    -0.0158955820
H     -5.5175059480    -0.1836927485     1.2976631451
C     -6.5379864872    -1.2147898974    -0.2706341247
H     -6.5054410121     1.5120449462    -1.0918952839
H     -5.7908287699     2.1353034035     0.4168128708
H     -7.3697994973     1.3158197135     0.4578200924
C     -6.9044189043    -1.3415723722    -1.6251399503
C     -7.6971209673    -2.4119806083    -2.0546413475
C     -8.1420790239    -3.3787003679    -1.1435440285
C     -6.9899549116    -2.1896959283     0.6354333567
H     -7.9710735104    -2.4925425047    -3.1137489450
H     -6.5675292683    -0.5938317567    -2.3530486612
H     -2.3822724589     7.0159540626    -0.6650572948
C     -2.0767566880     5.9651484418    -0.6083179246
H     -1.2022760732     6.1492015560     1.3651022443
C     -1.4163944733     5.4777202974     0.5248342674
C     -2.3423316682     5.0901672247    -1.6691430340
H     -2.8595452269     5.4575285593    -2.5637741827
C     -1.0281723975     4.1338162783     0.5975195999
C     -1.9552114950     3.7468946798    -1.5988195453
H     -0.5127831435     3.7610794983     1.4911460123
H     -2.1721593120     3.0791489746    -2.4410264983
C     -1.2922334753     3.2471091546    -0.4611401103
C     -7.7837750224    -3.2606200784     0.2036140048
H     -8.7630701326    -4.2158266323    -1.4819255613
H     -8.1251827252    -4.0090917131     0.9290708682
H     -6.7133443758    -2.1048109597     1.6936908023
H      4.6842008246     0.3253419084    -5.4908411899
C      4.1981351983     1.1816209043    -3.5545591076
C      3.9966405855     0.3169647117    -4.6375891458
H      5.0491472357     1.8732876455    -3.5598718535
C      3.3228445003     1.1724351311    -2.4624015848
H      2.7321671680    -1.2407474129    -5.4544904157
C      2.9042178022    -0.5569173423    -4.6143578446
H      3.4978090571     1.8578674603    -1.6245963959
C      2.2220487221     0.2945957666    -2.4299141432
C      2.0256907827    -0.5673708136    -3.5233749340
H      1.1710327322    -1.2548246979    -3.5152648498
H      0.2030399538    -5.8642974547    -0.6754036489
C      0.1546164083    -3.9726123017     0.3919020982
C      0.7079241792    -4.9097787748    -0.4892462490
H     -0.7914753207    -4.1928010314     0.9008844757
C      0.7974342488    -2.7520307560     0.6296791653
H      2.3628391777    -5.3303836568    -1.8216723404
C      1.9160523011    -4.6080094080    -1.1275723683
H      0.3476859754    -2.0323655166     1.3236839991
C      2.0121809914    -2.4393360856    -0.0091758025
C      2.5617804218    -3.3877985397    -0.8907970436
H      3.5091665668    -3.1625176295    -1.3954751644
H      8.9227451272    -0.3018313120    -0.9851133311
C      7.5810604671    -1.4124344771     0.3137865113
C      8.0142303991    -0.2709901430    -0.3731153101
H      8.1531780746    -2.3450808696     0.2409220533
C      6.4208127994    -1.3743362513     1.0949707489
H      7.5945732949     1.8117597470    -0.7962397928
C      7.2699462021     0.9085313785    -0.2658252734
H      6.1010906239    -2.2792474687     1.6257696937
C      5.6611457904    -0.1934087809     1.2093939535
C      6.1080950447     0.9458113934     0.5162290791
H      5.5329888051     1.8762026880     0.5945045320
H     -2.3752588897    -0.0390997007     5.4429646661
C     -2.2534411337    -0.8520194253     3.4317796066
C     -2.5374872823     0.1437905556     4.3749184812
H     -1.8650051506    -1.8230982781     3.7609813555
C     -2.4615453989    -0.6187099691     2.0678913840
H     -3.2619809209     2.1649198967     4.6572878049
C     -3.0336290321     1.3744080389     3.9321082726
H     -2.2387545435    -1.4139213033     1.3468322236
C     -2.9600582938     0.6162246759     1.6100412134
C     -3.2428671239     1.6084442544     2.5665805763
H     -3.6309564453     2.5775657130     2.2317734476
H     -3.5896451818     1.9089295910     0.0231003013
H     -0.4855877848     1.6106291595     0.6497314387
H      0.5327568755    -0.5384715713    -1.4244763936
H      3.6008855237    -1.0742796182    -0.4342777746
H      3.9540026804     0.8669074904     1.9542691393
