104
ps config_38710 from config_38710.mcos (coord_rad bohr -> angstrom)
C      5.5600773513    -1.0834073833    -2.5392468785
C      5.3196281308     0.3866947878    -2.1137981589
C      4.2981530457     0.6097671983    -0.9614829017
H      4.9798745303     0.9517170334    -3.0026334904
H      6.2878366076     0.8361375551    -1.8248710166
C      2.8617423083     0.2559280399    -1.4159162307
C      1.7663336160     0.3717579346    -0.3218568163
H      2.8504785328    -0.7736941956    -1.8175352139
H      2.5827653574     0.9124780310    -2.2620875476
C      0.3756159858     0.2045693645    -0.9872807650
C     -0.8456987140     0.4685255737    -0.0693716497
H      0.2942108479    -0.8209298910    -1.3954616839
H      0.3201935878     0.8830605750    -1.8598392711
C     -2.1387331912     0.0664951715    -0.8253858110
C     -3.4426709693     0.1110013898     0.0115936560
H     -2.0057791742    -0.9531094076    -1.2342700363
H     -2.2616244616     0.7313550867    -1.7017156514
C     -4.6506569493    -0.1101169151    -0.9404610691
C     -6.0570292517     0.0007289599    -0.2910351051
H     -4.5491668547    -1.1092129634    -1.4048889760
H     -4.5779747911     0.6209719827    -1.7683858282
C     -6.3677537051     1.4501358303     0.1591588206
C     -7.6792856454     1.5836648839     0.9483325700
H     -6.3897689017     2.1081987423    -0.7299663219
H     -5.5337511825     1.8148966200     0.7856944864
H     -8.5514773309     1.2865831794     0.3414465292
H     -7.8407676315     2.6247683055     1.2780652843
H     -7.6653378455     0.9449405036     1.8492731906
C      6.4894049760    -1.1096570745    -3.7755202022
H      4.5911893368    -1.5210985937    -2.8466183952
C      6.1257331675    -1.9609443916    -1.4213953847
H      7.4679075576    -0.6545410050    -3.5440433785
H      6.0394833836    -0.5448182853    -4.6111860027
H      6.6667412630    -2.1429003383    -4.1191447823
C      7.2768939169    -1.5861024700    -0.7012910647
C      7.8147014164    -2.4248299973     0.2814427965
C      7.2182535576    -3.6592424692     0.5684551151
C      5.5370939689    -3.2032482475    -1.1251383461
H      8.7107322095    -2.1098245902     0.8296862705
H      7.7613083147    -0.6252977603    -0.9123729075
H      2.5137673019    -3.1563002438     3.7828221435
C      2.3659908934    -2.4513054253     2.9571236516
H      2.6296620859    -0.6910812921     4.1902801744
C      2.4296605468    -1.0718952852     3.1813134360
C      2.1092882288    -2.9164055136     1.6610888335
H      2.0552110250    -3.9940382069     1.4659436135
C      2.2385658676    -0.1683797624     2.1275876696
C      1.9201189478    -2.0140971843     0.6084305283
H      2.2879024057     0.9100931981     2.3168325197
H      1.7203733803    -2.4017948618    -0.3977523135
C      1.9797993209    -0.6232565773     0.8212207593
C      6.0759856228    -4.0432782057    -0.1421074155
H      7.6404799317    -4.3144356177     1.3387522949
H      5.5959439534    -5.0062137608     0.0698994255
H      4.6428253979    -3.5138164362    -1.6791519835
H     -1.0477814233     5.6369224656     1.6903481379
C     -1.0691377637     4.3156667150    -0.0347643066
C     -1.0058185014     4.6011956055     1.3351892519
H     -1.1615865842     5.1317587840    -0.7613906060
C     -1.0159770827     2.9923373304    -0.4860554805
H     -0.8366250539     3.7502422431     3.3191370784
C     -0.8877319265     3.5435780250     2.2432309168
H     -1.0676010997     2.7925085724    -1.5630280090
C     -0.8979733237     1.9185520140     0.4178014620
C     -0.8345116173     2.2183738233     1.7909493288
H     -0.7425123071     1.3982987287     2.5123148920
H     -3.4613236498    -3.4707694815     4.1348276781
C     -3.2793922554    -3.1921712427     1.9877118345
C     -3.4531658053    -2.7533271119     3.3066568227
H     -3.1501276834    -4.2607919692     1.7784257779
C     -3.2690561220    -2.2756447915     0.9305760634
H     -3.7526027269    -1.0253662379     4.5776642420
C     -3.6160086208    -1.3855932771     3.5508428716
H     -3.1339253784    -2.6413882471    -0.0943213433
C     -3.4318886627    -0.8960343580     1.1631106509
C     -3.6055353952    -0.4680347344     2.4919928486
H     -3.7308829137     0.6018613415     2.6957692387
H     -9.8189866177    -2.0122101045    -3.6961319114
C     -8.3358202146    -0.4610486265    -3.3601430781
C     -9.0663349485    -1.6045336555    -3.0118907821
H     -8.5161664794     0.0302129620    -4.3240652725
C     -7.3748637082     0.0616105746    -2.4871655071
H     -9.3885451589    -3.1124652427    -1.4904147233
C     -8.8231397274    -2.2176557721    -1.7780584105
H     -6.8151386630     0.9590443369    -2.7771974282
C     -7.1224493800    -0.5484416495    -1.2428320330
C     -7.8614706322    -1.6953706499    -0.9029984421
H     -7.6768793477    -2.1826970590     0.0621632904
H      4.8732659914     5.7360556975     0.8305930049
C      4.1887720409     4.4576375103    -0.7870491063
C      4.7470194988     4.7080479349     0.4727758076
H      3.8757720318     5.2947261572    -1.4227381197
C      4.0255567447     3.1449927698    -1.2445453201
H      5.5776779168     3.8048986369     2.2579070956
C      5.1405366704     3.6261331262     1.2679896994
H      3.5873742151     2.9724106971    -2.2347962352
C      4.4178114366     2.0488807958    -0.4518856768
C      4.9782917435     2.3118739193     0.8110200626
H      5.2890668320     1.4708251377     1.4423255722
H      4.5761648391    -0.0611444395    -0.1262002924
H      1.8205869956     1.3908540858     0.1056036181
H     -0.7530263576    -0.1829616942     0.8204429928
H     -3.5190338967     1.1234123824     0.4516203451
H     -6.0639516609    -0.6410901575     0.6128527548
