104
ps config_74740 from config_74740.mcos (coord_rad bohr -> angstrom)
C      6.0428090349    -1.5961543964     0.2188224234
C      5.3445740721    -0.6637045874    -0.8090316137
C      4.1785332977     0.2027873258    -0.2188141671
H      4.9639553185    -1.2638316877    -1.6567293192
H      6.1147446490     0.0063946557    -1.2289646084
C      2.7986164425    -0.4078326106    -0.5687985188
C      1.5747911300     0.2861873340     0.0861111735
H      2.7980134568    -1.4775197177    -0.2898831150
H      2.6686533361    -0.3861748383    -1.6671083907
C      0.2785588705    -0.3209278947    -0.5092604209
C     -1.0431662241     0.3783826196    -0.0990112751
H      0.2170069566    -1.3872064992    -0.2192161651
H      0.3604668168    -0.3108006475    -1.6129561683
C     -2.2378432209    -0.4696498962    -0.6073169224
C     -3.6385990398    -0.0015381610    -0.1365977882
H     -2.0836278827    -1.5194704749    -0.2933633606
H     -2.2244596555    -0.4786841134    -1.7140139937
C     -4.7157398789    -0.8212009103    -0.8996538318
C     -6.1931294405    -0.4332355918    -0.6197901401
H     -4.5759461406    -1.8914215100    -0.6560747169
H     -4.5185887668    -0.7264894400    -1.9847262284
C     -6.5278837820     0.9798160458    -1.1592771872
C     -7.9316036451     1.4713721014    -0.7736885335
H     -6.4121342858     0.9843290983    -2.2595531797
H     -5.7790612496     1.6947656402    -0.7728323396
H     -8.7192606460     0.8199412780    -1.1890801113
H     -8.1117495802     2.4939351911    -1.1486829278
H     -8.0567254946     1.4897869804     0.3235217201
C      5.1045404535    -2.6788204126     0.7895950388
H      6.3659873443    -0.9524741547     1.0607546223
C      7.3043279729    -2.2155927830    -0.3872874692
H      4.6906604841    -3.3144154368    -0.0118802439
H      4.2567307456    -2.2257420267     1.3304514774
H      5.6422610431    -3.3301946171     1.4996414539
C      7.2252673966    -3.0928964936    -1.4872278114
C      8.3821910012    -3.6559939106    -2.0375008366
C      9.6425009914    -3.3574281597    -1.5031854792
C      8.5733327595    -1.9225767078     0.1401226463
H      8.2992576811    -4.3365767891    -2.8937558949
H      6.2470059831    -3.3390245932    -1.9170464208
H      1.7088145131    -0.0192592600     5.5401107530
C      1.6808596761     0.0388902701     4.4462692882
H      1.8044779510     2.1998013716     4.3900302295
C      1.7339860486     1.2782619498     3.7995607415
C      1.5896177434    -1.1256977770     3.6734763620
H      1.5455447850    -2.1062653618     4.1620877510
C      1.6982204237     1.3554663426     2.4009439590
C      1.5540514946    -1.0485510387     2.2766846542
H      1.7393853340     2.3328469190     1.9064378181
H      1.4812374034    -1.9736326121     1.6922289128
C      1.6083826339     0.1928502454     1.6134742734
C      9.7311344705    -2.4874771378    -0.4112488144
H     10.5469320504    -3.8002750497    -1.9355002257
H     10.7103368050    -2.2443484733     0.0186316849
H      8.6516811934    -1.2413123544     0.9967750049
H     -1.2997351336     5.5389441309    -1.8744860130
C     -1.1511528895     3.4440191756    -2.4325274461
C     -1.2470580461     4.5032037377    -1.5208053557
H     -1.1284971319     3.6479750337    -3.5097545662
C     -1.0846819913     2.1221263289    -1.9786666951
H     -1.3488306029     5.0364100620     0.5754838040
C     -1.2742682954     4.2185227967    -0.1514240821
H     -1.0108211214     1.3091025282    -2.7108714319
C     -1.1117286547     1.8219872510    -0.6027733610
C     -1.2075887952     2.8946107475     0.3026519913
H     -1.2302413519     2.6843033248     1.3780864526
H     -4.3013034630    -0.3555715050     5.2731677736
C     -3.8369622043    -1.4232334472     3.4386442007
C     -4.1641456457    -0.2859438074     4.1882782076
H     -3.7161718226    -2.3921831730     3.9376377080
C     -3.6617329479    -1.3336722429     2.0533782299
H     -4.5685052999     1.8401258196     4.1036933892
C     -4.3131797154     0.9400783676     3.5314071654
H     -3.4083756805    -2.2370695503     1.4858482405
C     -3.8087907808    -0.1051802440     1.3802174998
C     -4.1377233936     1.0294960539     2.1441490112
H     -4.2538337350     1.9963586460     1.6405079247
H     -9.5005620623    -4.3020228550    -2.5927351094
C     -8.0477484828    -2.7578208714    -3.0655809553
C     -8.8395704222    -3.5218719762    -2.1985983223
H     -8.0874084644    -2.9408027453    -4.1462917032
C     -7.2036863759    -1.7604882286    -2.5639972597
H     -9.3916557014    -3.8628652446    -0.1318142370
C     -8.7762298675    -3.2742105408    -0.8230755734
H     -6.5930834461    -1.1718515896    -3.2593573249
C     -7.1325031196    -1.5035766297    -1.1808122819
C     -7.9317275367    -2.2758961388    -0.3195713494
H     -7.8877658060    -2.0888696276     0.7603306574
H      4.7682785513     5.3699424842    -1.8787113424
C      4.2467350069     3.3408069014    -2.4530508342
C      4.6403902430     4.3335968077    -1.5466133632
H      4.0669280578     3.6003122183    -3.5033472916
C      4.0810053678     2.0167645590    -2.0312879683
H      5.1740910118     4.7484342702     0.5116292069
C      4.8664185289     3.9830341137    -0.2112339866
H      3.7764494636     1.2553813743    -2.7594080746
C      4.3046762169     1.6538114048    -0.6887829051
C      4.7008590528     2.6579720853     0.2127278335
H      4.8779909210     2.3929326588     1.2616721622
H      4.2826868197     0.2051834740     0.8835068048
H      1.6083106736     1.3583954887    -0.1859507348
H     -1.0884531808     0.4048775180     1.0063719704
H     -3.7424829100     1.0645954104    -0.4140117099
H     -6.3362243362    -0.4159514426     0.4793665220
