104
ps config_64760 from config_64760.mcos (coord_rad bohr -> angstrom)
C      4.7184530436    -0.0056223697     2.1974305166
C      3.9569933061    -1.1827544794     1.5377362466
C      3.2320363780    -0.8687434276     0.1970361457
H      3.2113698541    -1.5605165591     2.2627181348
H      4.6657863858    -2.0154461468     1.3729807119
C      2.0474240607     0.1046733619     0.4240104503
C      1.2515371906     0.4977461801    -0.8452844626
H      2.4277433236     1.0250813147     0.9031076035
H      1.3519258335    -0.3453271654     1.1556581755
C      0.1219133968     1.5181860547    -0.5121110080
C     -1.0368122821     1.0440043054     0.4155469946
H     -0.3251000634     1.8658899517    -1.4617821438
H      0.5933632161     2.4077112313    -0.0549194134
C     -1.8643702082    -0.0834021970    -0.2503032121
C     -3.0733754535    -0.6000779484     0.5706650538
H     -1.1945097047    -0.9342627409    -0.4719149959
H     -2.2245953618     0.2741959693    -1.2319386557
C     -3.8291011293    -1.7228934006    -0.1997655351
C     -4.5747317561    -1.2806859985    -1.4835570945
H     -4.5562212764    -2.1982601847     0.4842555180
H     -3.1011234427    -2.5118009671    -0.4604119755
C     -5.1480663316    -2.5147410206    -2.2411749213
C     -4.0803972999    -3.4323608947    -2.8588420085
H     -5.8117563131    -2.1464673857    -3.0456089196
H     -5.7917526626    -3.0921435848    -1.5508580971
H     -3.4412820488    -3.9058563144    -2.0950830410
H     -3.4241192817    -2.8683992625    -3.5452180517
H     -4.5523144984    -4.2438006304    -3.4397019802
C      5.2448357482    -0.4528857670     3.5815963061
H      4.0038602836     0.8217721875     2.3696122031
C      5.8591857719     0.5426273706     1.3388082843
H      5.9420836261    -1.3027836359     3.4840978347
H      4.4091328202    -0.7699127671     4.2301043176
H      5.7778972672     0.3685280583     4.0897872060
C      6.8656019024    -0.2997619793     0.8269992845
C      7.9339492552     0.2223208646     0.0891080058
C      8.0259440478     1.5985508880    -0.1550777408
C      5.9637713783     1.9222712259     1.0877313429
H      8.7040742562    -0.4546988139    -0.2997166114
H      6.8149558646    -1.3799682048     1.0089925396
H      4.2329594050     2.7179260232    -4.8437626296
C      3.6443197587     2.2665979837    -4.0371299127
H      2.7448959951     0.7594172929    -5.3068699523
C      2.8110092662     1.1721145201    -4.2928120600
C      3.7146604020     2.7774656482    -2.7351495169
H      4.3622426483     3.6360934383    -2.5205633363
C      2.0588471226     0.5957021620    -3.2613618107
C      2.9652026800     2.2028517673    -1.7020337749
H      1.4074365845    -0.2612940227    -3.4718452346
H      3.0337463999     2.6187056553    -0.6897172139
C      2.1253116931     1.1000772149    -1.9504564745
C      7.0333990074     2.4453629882     0.3496719095
H      8.8631227964     2.0053953102    -0.7334551153
H      7.0884224503     3.5252470167     0.1671931618
H      5.1910011702     2.5947043804     1.4798482163
H     -3.8838980726     5.5004730694     1.7727586839
C     -3.3925445308     4.0841674617     0.2007188957
C     -3.3222768715     4.5996195056     1.5009296186
H     -4.0129006411     4.5854906150    -0.5519250798
C     -2.6776958584     2.9328806340    -0.1497056802
H     -2.4585545484     4.3378782010     3.4702406699
C     -2.5241225853     3.9476839469     2.4472776389
H     -2.7456916262     2.5463177802    -1.1735753150
C     -1.8734185245     2.2695961872     0.7970899285
C     -1.8065864868     2.7961676875     2.0992509705
H     -1.1827134464     2.2926790011     2.8478291630
H     -1.8205630451    -2.5176737439     5.5277970744
C     -1.4187194480    -2.6319501879     3.3957777913
C     -2.0621341871    -2.1276248260     4.5327428392
H     -0.6666520563    -3.4233798217     3.4988576124
C     -1.7254247648    -2.1334568016     2.1243452354
H     -3.5326335335    -0.7126058283     5.2577207311
C     -3.0192486839    -1.1188609536     4.3775876356
H     -1.2124125210    -2.5438405315     1.2466522689
C     -2.6851265525    -1.1168278799     1.9585402939
C     -3.3285291730    -0.6190206007     3.1060263850
H     -4.0813924757     0.1709018479     2.9962591708
H     -8.6495209606     2.2541347516    -0.6384959799
C     -7.7589292303     0.3574873863    -0.0655825389
C     -7.8263514820     1.5488250586    -0.7990323350
H     -8.5351612576     0.1263381557     0.6738795379
C     -6.7076094487    -0.5442693525    -0.2667161550
H     -6.8622163886     2.7539624237    -2.3202688456
C     -6.8268307321     1.8253305569    -1.7381086518
H     -6.6754447508    -1.4710745421     0.3181601505
C     -5.6946034311    -0.2760722333    -1.2084374897
C     -5.7751047673     0.9224198517    -1.9395304744
H     -4.9968657841     1.1481167146    -2.6786396894
H      1.8853061498    -5.6188779684    -2.1351489319
C      1.4957609285    -4.2358357730    -0.5055135700
C      2.1457071619    -4.6611976763    -1.6707621093
H      0.7197409879    -4.8640269262    -0.0518689696
C      1.8269417687    -3.0122781595     0.0880698332
H      3.6529058683    -4.1627156672    -3.1439685913
C      3.1339056612    -3.8446215423    -2.2314488987
H      1.3088509014    -2.6990683275     1.0020355595
C      2.8178328431    -2.1826769607    -0.4704375968
C      3.4673515561    -2.6198425226    -1.6389144629
H      4.2447129782    -1.9885439973    -2.0859728195
H      3.9575795533    -0.3736975648    -0.4759574921
H      0.7960491812    -0.4211876245    -1.2590468250
H     -0.6073687202     0.6425852105     1.3523271058
H     -3.7723653911     0.2445673677     0.7195981873
H     -3.8507405898    -0.7940771969    -2.1669242992
