104
ps config_17970 from config_17970.mcos (coord_rad bohr -> angstrom)
C     -5.4480691657    -1.1085908824     0.1707367216
C     -4.2154886770    -0.3503889066    -0.3877597765
C     -3.2668432977     0.2619311557     0.6793500142
H     -4.5639997436     0.4655206788    -1.0497457903
H     -3.6293492995    -1.0368131146    -1.0271553553
C     -2.1700660326     1.0820897350    -0.0508791459
C     -1.2268221507     1.8966444566     0.8660418577
H     -2.6672029601     1.7713720575    -0.7597744235
H     -1.5659389186     0.3976004909    -0.6737417162
C     -0.2001995798     2.7219314277     0.0340250888
C      0.8505257789     1.9304585671    -0.8009129831
H      0.3480998038     3.3943077724     0.7194553211
H     -0.7677332660     3.3806326800    -0.6490307681
C      1.8133025021     1.1364925465     0.1135580502
C      2.9382715430     0.3557037897    -0.6170055719
H      1.2265627933     0.4292508201     0.7274271405
H      2.2859077525     1.8341026259     0.8311094916
C      3.8965474791    -0.2382793800     0.4522922284
C      5.1529336944    -0.9693050190    -0.0944967149
H      3.3207858637    -0.9397439610     1.0847768325
H      4.2201028668     0.5817129288     1.1218942177
C      6.1364552175     0.0137625373    -0.7774576336
C      7.3194006051    -0.6788000901    -1.4715459906
H      6.5064200719     0.7360757580    -0.0255103003
H      5.5820814507     0.6107021160    -1.5241119120
H      6.9662351499    -1.3918542268    -2.2374664460
H      7.9406995371    -1.2402659033    -0.7531992455
H      7.9716817325     0.0567005155    -1.9738111412
C     -6.4298583311    -0.1601292860     0.8912861693
H     -5.0788261693    -1.8481099987     0.9083284817
C     -6.1482451337    -1.8941254503    -0.9404854001
H     -6.7942869795     0.6280650978     0.2099990153
H     -5.9494988060     0.3353652445     1.7513506271
H     -7.3060562466    -0.7120889176     1.2727385559
C     -6.7255433516    -1.2370276031    -2.0450178845
C     -7.3603878288    -1.9642937773    -3.0582530754
C     -7.4340686478    -3.3617606081    -2.9923674783
C     -6.2280679910    -3.2963295850    -0.8835697185
H     -7.8032942549    -1.4336214255    -3.9100016644
H     -6.6798596600    -0.1435703725    -2.1135511453
H     -3.7727828767     5.4077976731     4.1830123949
C     -3.2705167099     4.6972914016     3.5169314599
H     -2.0946356411     3.7893487615     5.0935258059
C     -2.3313543647     3.7917890681     4.0226551607
C     -3.5598632743     4.6820421376     2.1467295672
H     -4.2940759074     5.3854863393     1.7357012071
C     -1.6910020961     2.8825609161     3.1709790891
C     -2.9215576344     3.7742561004     1.2937220632
H     -0.9572552903     2.1758050727     3.5775212548
H     -3.1625895171     3.7796994644     0.2240769001
C     -1.9762346957     2.8580513704     1.7944409838
C     -6.8643568512    -4.0227491547    -1.8988924165
H     -7.9321139430    -3.9291495759    -3.7866736148
H     -6.9147944417    -5.1164249803    -1.8326712182
H     -5.7838431823    -3.8226492973    -0.0295937385
H      3.3044126289     5.5350227275    -4.0865226581
C      3.1093240865     4.7870767640    -2.0565273373
C      2.8208838592     4.8057637497    -3.4268816123
H      3.8239846881     5.5066129969    -1.6389372764
C      2.4949238769     3.8554067485    -1.2117640028
H      1.6712826156     3.8796795464    -5.0122649894
C      1.9068520303     3.8795848306    -3.9411371284
H      2.7344915928     3.8585771863    -0.1417778319
C      1.5749513784     2.9183845211    -1.7211368516
C      1.2903783230     2.9464292958    -3.0977177049
H      0.5760926932     2.2236917317    -3.5107930145
H      1.0931029850    -3.5011265533    -4.0137271022
C      1.1339343428    -2.7664268564    -1.9694335701
C      1.4575526862    -2.7250634377    -3.3315638474
H      0.5103920035    -3.5799396527    -1.5799405054
C      1.5989265376    -1.7762154124    -1.0968602034
H      2.5182694635    -1.6309340608    -4.8703158998
C      2.2548493202    -1.6784624258    -3.8066452599
H      1.3362982220    -1.8293578064    -0.0337674569
C      2.4026300995    -0.7185954406    -1.5645520794
C      2.7227332333    -0.6870119562    -2.9341584388
H      3.3467970827     0.1285901750    -3.3178881702
H      7.4844864392    -3.8587541796     3.9074410876
C      6.9671196230    -1.8792069106     3.1774736901
C      7.0204200814    -3.2770967461     3.1029637370
H      7.3911712254    -1.3615819364     4.0465058538
C      6.3754811477    -1.1348316871     2.1505776633
H      6.5105985423    -5.0139018593     1.9130087928
C      6.4747158409    -3.9200994048     1.9866402120
H      6.3455288328    -0.0411588252     2.2266586696
C      5.8230294535    -1.7728131301     1.0226986610
C      5.8823180149    -3.1761379464     0.9576169489
H      5.4567370404    -3.6886360211     0.0862156882
H     -1.2841252439    -3.5729444762     4.0237734457
C     -1.3669890994    -2.8230706073     1.9862198002
C     -1.6758719074    -2.8009338117     3.3522191534
H     -0.7273806356    -3.6170711663     1.5827870776
C     -1.8672146754    -1.8380892524     1.1273875650
H     -2.7458394061    -1.7461375309     4.9118648259
C     -2.4937905657    -1.7787153850     3.8449088912
H     -1.6152763984    -1.8762170533     0.0610212065
C     -2.6922381210    -0.8050025366     1.6125086547
C     -2.9966037873    -0.7924935205     2.9860377413
H     -3.6362567746     0.0040461096     3.3838378671
H     -3.8464840197     0.9719267915     1.2987340050
H     -0.6765808594     1.1865248257     1.5117896051
H      0.3210807469     1.2097222064    -1.4521158524
H      3.4987044615     1.0889528536    -1.2266136974
H      4.8148314449    -1.6944698077    -0.8617285118
