104
ps config_93830 from config_93830.mcos (coord_rad bohr -> angstrom)
C      6.3588668738    -1.0921939285    -2.0103690392
C      4.9428807311    -0.4980456695    -2.2340575003
C      4.0138478384    -0.4460166342    -0.9891901774
H      4.4403722049    -1.1412238593    -2.9820305323
H      5.0150379723     0.5034762032    -2.6960414145
C      2.5496511157    -0.2607706321    -1.4733896809
C      1.4553055865    -0.4128076192    -0.3854283525
H      2.3529282065    -0.9925475053    -2.2794596812
H      2.4472502952     0.7380777253    -1.9389292096
C      0.0840112685    -0.0309610831    -1.0006618386
C     -1.1023549620     0.0513300544    -0.0058496595
H     -0.1692053018    -0.7639841829    -1.7904078257
H      0.1879241660     0.9442441412    -1.5136387577
C     -2.4156489673     0.2430199205    -0.8081509911
C     -3.7226669839     0.1859674951     0.0230812607
H     -2.4584294591    -0.5260739661    -1.6025864614
H     -2.3755495108     1.2175465636    -1.3312627194
C     -4.9095758047     0.5947545278    -0.8927455934
C     -6.2980281194     0.6922660162    -0.2039653943
H     -4.9735740350    -0.1321420477    -1.7244424907
H     -4.6693076529     1.5704129785    -1.3571396388
C     -6.3563155625     1.8657878842     0.8056622288
C     -7.6548820603     1.9105303750     1.6257040400
H     -6.2171579115     2.8187869768     0.2611689737
H     -5.4982510379     1.7836579408     1.4971497293
H     -7.7991944947     0.9718365222     2.1895060408
H     -8.5386533712     2.0522465980     0.9805975565
H     -7.6366932202     2.7396771128     2.3543175453
C      6.9209785119    -1.5995975621    -3.3619709543
H      6.2463277162    -1.9724179129    -1.3463721304
C      7.3758845011    -0.1523246261    -1.3611405598
H      6.2589415767    -2.3709319414    -3.7927180555
H      7.9243633103    -2.0399157880    -3.2348431760
H      7.0027383721    -0.7748853168    -4.0909403755
C      7.6594622353     1.1137304778    -1.9065154379
C      8.6553017532     1.9280199741    -1.3556662517
C      9.3944488361     1.4947254365    -0.2473344053
C      8.1273471469    -0.5790384260    -0.2519087833
H      8.8562454469     2.9115778649    -1.7974345137
H      7.0951449006     1.4686898221    -2.7773265094
H      1.4180196985    -5.4263450894     1.7866164982
C      1.4241552069    -4.4217252341     1.3491827632
H      1.8682294505    -3.4264110657     3.2204138375
C      1.6756993966    -3.3011530196     2.1479864038
C      1.1806529529    -4.2396597725    -0.0182493573
H      0.9815619735    -5.1061852895    -0.6601052901
C      1.6845280005    -2.0159019678     1.5898752911
C      1.1894632269    -2.9559040766    -0.5747742424
H      1.8835013299    -1.1457774644     2.2257781557
H      0.9965522041    -2.8374652189    -1.6477103476
C      1.4419798992    -1.8193915736     0.2180505646
C      9.1241953846     0.2356893558     0.3001506357
H     10.1743271007     2.1325421766     0.1841434412
H      9.6943071088    -0.1180358398     1.1678305615
H      7.9241006724    -1.5658295989     0.1821955157
H     -0.4118888571     3.9706582848     3.7372829115
C     -0.6148170102     3.5098929117     1.6233745872
C     -0.5486421148     3.1861208498     2.9846681025
H     -0.5296626120     4.5553581913     1.3035340682
C     -0.7902422106     2.5065903585     0.6639422964
H     -0.6091740489     1.5752397124     4.4305083254
C     -0.6593829635     1.8455733965     3.3687783168
H     -0.8394134978     2.7835789184    -0.3959607049
C     -0.9040801946     1.1532811212     1.0375612240
C     -0.8349136185     0.8411544022     2.4076676251
H     -0.9208129339    -0.2055960208     2.7211004860
H     -4.5723558752    -4.6818773029     2.3496644443
C     -4.2497944689    -3.6016236370     0.4922681108
C     -4.3977549297    -3.7067887702     1.8812978901
H     -4.3084872618    -4.4995316101    -0.1344474002
C     -4.0268256240    -2.3562508116    -0.1052979632
H     -4.4321145377    -2.6135296081     3.7506568827
C     -4.3191370341    -2.5485053332     2.6617141963
H     -3.9164156470    -2.2968447015    -1.1946424972
C     -3.9454420929    -1.1826854940     0.6693703017
C     -4.0955981397    -1.3014944874     2.0631745086
H     -4.0322167467    -0.4010262136     2.6853463248
H    -10.2156923400     0.9681546905    -3.9953410509
C     -8.4881318699     1.9451816176    -3.1121801344
C     -9.4310104701     0.9160373789    -3.2321615213
H     -8.5331704101     2.8091052255    -3.7864328526
C     -7.4858470879     1.8806277239    -2.1375859152
H    -10.0907581796    -0.9905790640    -2.4433636269
C     -9.3583746609    -0.1780054491    -2.3630786463
H     -6.7584642023     2.6976163814    -2.0582828239
C     -7.4040762801     0.7833777543    -1.2579599693
C     -8.3554710323    -0.2439024520    -1.3867851026
H     -8.3055879550    -1.1055972841    -0.7099132049
H      5.3002064932     3.3443709571     2.7269284114
C      4.6618072388     2.9637486769     0.6846885159
C      5.0484497477     2.5858408556     1.9770906628
H      4.6102694653     4.0256127617     0.4159428315
C      4.3393067260     1.9935878538    -0.2702057865
H      5.4067198455     0.9122135239     3.3042438733
C      5.1066085012     1.2250211883     2.2966716218
H      4.0413346712     2.3116649725    -1.2767558958
C      4.3967798239     0.6211296608     0.0375290797
C      4.7836845340     0.2547306269     1.3391692332
H      4.8300861560    -0.8086553548     1.6016605711
H      4.0809051093    -1.4324837996    -0.4896396173
H      1.6772436130     0.3022955188     0.4295003918
H     -1.1677634139    -0.9140015647     0.5313813030
H     -3.6303931154     0.9302427408     0.8366192438
H     -6.4619480786    -0.2468077012     0.3618636627
