104
ps config_73830 from config_73830.mcos (coord_rad bohr -> angstrom)
C      6.6349307792    -0.7255829344     0.3960679337
C      5.1805556487    -1.2143415481     0.1694376205
C      4.0897646561    -0.1082976797     0.1884243578
H      4.9268551967    -1.9621681296     0.9449911752
H      5.1267682972    -1.7450073073    -0.7999383497
C      2.6999041743    -0.7816254544     0.0560225961
C      1.4803793798     0.1549103135     0.2591798030
H      2.6398151220    -1.6096553631     0.7879993800
H      2.6203076823    -1.2520408405    -0.9423977408
C      0.1854087316    -0.6286243750    -0.0771525273
C     -1.1184142131     0.2099048708    -0.1163399537
H      0.0587419169    -1.4429613433     0.6616846092
H      0.3187575001    -1.1253141590    -1.0571903793
C     -2.3271736051    -0.7509314603    -0.2597753786
C     -3.7245024406    -0.0871635997    -0.1623468133
H     -2.2450125310    -1.5374469802     0.5141980145
H     -2.2548406544    -1.2740315774    -1.2324722664
C     -4.8020916221    -1.1436012715    -0.5324440783
C     -6.2665418155    -0.6297663981    -0.5873169388
H     -4.7413241166    -1.9734580011     0.1968400176
H     -4.5367237855    -1.5797260007    -1.5146084381
C     -6.4835169397     0.3578003104    -1.7613394775
C     -7.8720706551     1.0154883850    -1.7665881080
H     -6.3100754206    -0.1727138828    -2.7166167297
H     -5.7128543829     1.1480602171    -1.7090353379
H     -7.9677632948     1.7355816907    -2.5978517111
H     -8.0532798611     1.5640256968    -0.8252368616
H     -8.6760064553     0.2681125361    -1.8780084029
C      6.8383539181    -0.1627246399     1.8189873662
H      6.8300788144     0.0896640602    -0.3282969434
C      7.6351374922    -1.8435129051     0.0933161363
H      7.8809867249     0.1660235017     1.9696760108
H      6.6071860582    -0.9232288291     2.5847918217
H      6.1862599325     0.7074226115     2.0024757410
C      7.6369098987    -3.0410337585     0.8356231668
C      8.5540157285    -4.0585872020     0.5491752312
C      9.4890376020    -3.9045925196    -0.4826302025
C      8.5776444993    -1.6987471383    -0.9393744411
H      8.5386841842    -4.9835466729     1.1386560911
H      6.9141800953    -3.1797178189     1.6485609860
H      1.3682257289     2.2879440273     5.2881924488
C      1.3894482698     1.8581168767     4.2805052662
H      1.5647326499     3.7730501925     3.2847662489
C      1.4992617748     2.6856441759     3.1579794022
C      1.3073403367     0.4718728395     4.0964175384
H      1.2210778879    -0.1925072577     4.9645432661
C      1.5267523442     2.1375263194     1.8686701803
C      1.3348887830    -0.0748011220     2.8087277069
H      1.6137789921     2.7962907445     0.9970414091
H      1.2694601487    -1.1628669646     2.6887351371
C      1.4448466534     0.7471090470     1.6701568737
C      9.4953940802    -2.7184788719    -1.2244174268
H     10.2064688571    -4.7026278527    -0.7047612528
H     10.2220837751    -2.5827220737    -2.0346880964
H      8.5890157734    -0.7718609097    -1.5261968779
H     -1.0154117992     3.9904560924    -4.0592678224
C     -0.9633637301     1.8689529817    -3.5915870100
C     -1.0356785819     3.2304786519    -3.2701761286
H     -0.8859279238     1.5562249673    -4.6397914960
C     -0.9895679983     0.9002036356    -2.5823488889
H     -1.1917991692     4.6672081776    -1.6575858967
C     -1.1343602138     3.6053830855    -1.9260637363
H     -0.9310995007    -0.1596840960    -2.8576256408
C     -1.0891515875     1.2643336802    -1.2253428898
C     -1.1612811424     2.6348614188    -0.9157519133
H     -1.2394427885     2.9409963242     0.1337829618
H     -4.6902492042     2.1426620815     4.7289859813
C     -4.1888626172     0.3310428354     3.6392375786
C     -4.4927190955     1.6941124408     3.7489678780
H     -4.1472549847    -0.2951210648     4.5384800598
C     -3.9364934326    -0.2409753820     2.3875163422
H     -4.7769121946     3.5430317056     2.6574483528
C     -4.5406555243     2.4742561825     2.5888188085
H     -3.7028637860    -1.3104514069     2.3242899204
C     -3.9810034411     0.5338344376     1.2121030228
C     -4.2880903835     1.9012445032     1.3353584997
H     -4.3255683186     2.5232147313     0.4332950876
H     -9.7097218833    -4.8632165665    -0.7300051175
C     -8.1198542152    -3.7959756626    -1.7556707963
C     -9.0204101061    -4.0117047448    -0.7045218735
H     -8.1023651302    -4.4833582797    -2.6101877952
C     -7.2394651500    -2.7084541315    -1.7254387503
H     -9.7292200758    -3.2792893414     1.2069631260
C     -9.0286839513    -3.1245257934     0.3772718631
H     -6.5440416890    -2.5555084104    -2.5595981422
C     -7.2397692704    -1.8097263762    -0.6406706135
C     -8.1477727185    -2.0353192815     0.4089384029
H     -8.1606754782    -1.3450394382     1.2612480697
H      4.9976532348     3.6752707184    -3.6450671189
C      4.5274295719     1.5928299036    -3.2408252878
C      4.8114178804     2.9156426264    -2.8776312426
H      4.4901484684     1.3113321752    -4.2999849087
C      4.2897224847     0.6235858877    -2.2602217314
H      5.0737449096     4.2839036713    -1.2193363901
C      4.8537172128     3.2526253695    -1.5206567810
H      4.0714468700    -0.4063096638    -2.5671460320
C      4.3292986856     0.9496821976    -0.8905117696
C      4.6157130575     2.2815602226    -0.5390239193
H      4.6479865026     2.5583550149     0.5212996080
H      4.1220502519     0.3992903794     1.1712902938
H      1.5700196124     0.9939596515    -0.4569681072
H     -1.2159527061     0.7398894660     0.8503242699
H     -3.7564055603     0.7278412959    -0.9100386774
H     -6.4683976495    -0.0816851894     0.3549330643
