104
ps config_98900 from config_98900.mcos (coord_rad bohr -> angstrom)
C      6.6349253422     0.7255744853    -0.3961387128
C      5.1805506650     1.2143423195    -0.1695287283
C      4.0897647566     0.1082927065    -0.1884441228
H      4.9268414921     1.9621214913    -0.9451251685
H      5.1267666890     1.7450654862     0.7998159004
C      2.6999010473     0.7816237386    -0.0560906372
C      1.4803782432    -0.1549289651    -0.2591795447
H      2.6398092124     1.6096006429    -0.7881274137
H      2.6203033860     1.2521108287     0.9422957923
C      0.1854063850     0.6286337869     0.0770828464
C     -1.1184163802    -0.2098927567     0.1163415291
H      0.0587400545     1.4429063144    -0.6618255182
H      0.3187531411     1.1254089263     1.0570777886
C     -2.3271768760     0.7509555795     0.2596896843
C     -3.7245050323     0.0871763153     0.1623371240
H     -2.2450221059     1.5373950701    -0.5143616725
H     -2.2548378508     1.2741515298     1.2323345834
C     -4.8020923459     1.1436509594     0.5323358193
C     -6.2665424217     0.6298233312     0.5872723365
H     -4.7413299369     1.9734334263    -0.1970331540
H     -4.5367168271     1.5798753724     1.5144538445
C     -6.4835075452    -0.3576316073     1.7613907473
C     -7.8720653694    -1.0153100847     1.7667205937
H     -6.3100490264     0.1729712071     2.7166155602
H     -5.7128509362    -1.1479014363     1.7091496493
H     -8.0532908490    -1.5639355576     0.8254238682
H     -8.6759949114    -0.2679186376     1.8780809447
H     -7.9677513949    -1.7353239954     2.5980537305
C      6.8383454807     0.1626525114    -1.8190337383
H      6.8300746428    -0.0896399058     0.3282626933
C      7.6351387117     1.8435143336    -0.0934450451
H      6.6071855951     0.9231275250    -2.5848696059
H      6.1862444970    -0.7074974013    -2.0024864770
H      7.8809758149    -0.1661106679    -1.9697066310
C      7.6368573015     3.0410346123    -0.8357529331
C      8.5539751405     4.0585934035    -0.5493635970
C      9.4890635922     3.9046044925     0.4823822504
C      8.5777128872     1.6987537719     0.9391846278
H      8.5386002624     4.9835528448    -1.1388432419
H      6.9140764367     3.1797135382    -1.6486460914
H      1.3682510583    -2.2883636764    -5.2880225609
C      1.3894685307    -1.8584561162    -4.2803696305
H      1.5647437736    -3.7733100533    -3.2844766622
C      1.4992741628    -2.6858938288    -3.1577772132
C      1.3073620747    -0.4721974202    -4.0963929919
H      1.2211059926     0.1921135212    -4.9645721573
C      1.5267581719    -2.1376733637    -1.8685114209
C      1.3349036682     0.0745794433    -2.8087467613
H      1.6137791858    -2.7963685031    -0.9968297276
H      1.2694761815     1.1626550205    -2.6888411687
C      1.4448530620    -0.7472403044    -1.6701097198
C      9.4954751153     2.7184906154     1.2241684953
H     10.2065035204     4.7026446370     0.7044683424
H     10.2222174008     2.5827382441     2.0343928299
H      8.5891271849     0.7718677002     1.5260064167
H     -1.0154190709    -3.9900956217     4.0596032130
C     -0.9633759212    -1.8686338686     3.5917357500
C     -1.0356848813    -3.2301879045     3.2704444994
H     -0.8859456993    -1.5558130023     4.6399129214
C     -0.9895789479    -0.8999736579     2.5824120861
H     -1.1917931060    -4.6670602215     1.6579802720
C     -1.1343589446    -3.6052113036     1.9263648497
H     -0.9311149024     0.1599385440     2.8575956369
C     -1.0891553088    -1.2642234110     1.2254375837
C     -1.1612785314    -2.6347789004     0.9159673152
H     -1.2394339973    -2.9410067130    -0.1335409545
H     -4.6902917356    -2.1431444454    -4.7287616399
C     -4.1888950185    -0.3314152277    -3.6392010814
C     -4.4927534310    -1.6944956083    -3.7487905882
H     -4.1472940284     0.2946573647    -4.5385074510
C     -3.9365151725     0.2407299051    -2.3875400783
H     -4.7769394132    -3.5433037699    -2.6570811091
C     -4.5406814176    -2.4745214631    -2.5885620912
H     -3.7028842620     1.3102121748    -2.3244242089
C     -3.9810161834    -0.5339607295    -1.2120479364
C     -4.2881057478    -1.9013828951    -1.3351620159
H     -4.3255770413    -2.5232616360    -0.4330353019
H     -9.7097125774     4.8632938489     0.7295944696
C     -8.1198348727     3.7961480493     1.7553438779
C     -9.0204027696     4.0117781154     0.7041849159
H     -8.1023339918     4.4836129549     2.6097945153
C     -7.2394483810     2.7086220199     1.7252056389
H     -9.7292371367     3.2791804465    -1.2072213765
C     -9.0286913761     3.1244951880    -0.3775235036
H     -6.5440154222     2.5557553119     2.5593713818
C     -7.2397668404     1.8097902041     0.6405240159
C     -8.1477824950     2.0352839917    -0.4090956340
H     -8.1606970860     1.3449222602    -1.2613388536
H      4.9976482626    -3.6750175245     3.6453027263
C      4.5274183528    -1.5926053650     3.2409200019
C      4.8114153678    -2.9154407471     2.8778153866
H      4.4901290001    -1.3110378173     4.3000607504
C      4.2897133058    -0.6234271896     2.2602511420
H      5.0737612155    -4.2838094315     1.2196124866
C      4.8537260425    -3.2525124384     1.5208635468
H      4.0714310611     0.4064875345     2.5671060531
C      4.3293002260    -0.9496138345     0.8905630585
C      4.6157239183    -2.2815133480     0.5391647112
H      4.6480070525    -2.5583776750    -0.5211403822
H      4.1220545970    -0.3993611683    -1.1712759550
H      1.5700146164    -0.9939211846     0.4570357149
H     -1.2159529466    -0.7399627080    -0.8502761239
H     -3.7564019386    -0.7277529078     0.9101116165
H     -6.4684091748     0.0816526513    -0.3549233441
