104
ps config_57890 from config_57890.mcos (coord_rad bohr -> angstrom)
C     -5.1556319464    -0.6707973250     0.0076119989
C     -3.7955704477    -0.3705406598    -0.6747779463
C     -2.9138388532     0.6978096318     0.0290273585
H     -3.9800797807    -0.0351355490    -1.7132959599
H     -3.2168719683    -1.3101757049    -0.7526078360
C     -1.6585034025     0.9538055043    -0.8457801605
C     -0.7717534548     2.1478138017    -0.4047053759
H     -1.9896342593     1.1295638705    -1.8865817369
H     -1.0466278975     0.0346604570    -0.8778715838
C      0.4720217807     2.3127099690    -1.3350288961
C      1.7905701671     1.5590765603    -0.9694907288
H      0.7298965190     3.3863899379    -1.3818897321
H      0.1883683133     2.0274250673    -2.3662270997
C      1.6751192479     0.0194905179    -1.0630114569
C      3.0395013824    -0.7134710443    -1.1539487520
H      1.0819528619    -0.2297919764    -1.9622341661
H      1.1043901669    -0.3835016849    -0.2087053787
C      2.8425421073    -2.2569144310    -1.2023361473
C      2.4366369106    -2.9184078409     0.1374890172
H      3.7751192795    -2.7298704965    -1.5606515930
H      2.0778725197    -2.4853854372    -1.9663729194
C      2.0883864417    -4.4221901125    -0.0677286292
C      0.8126067929    -4.6746557369    -0.8874531363
H      1.9710364851    -4.8869573205     0.9289700554
H      2.9507750644    -4.9270643679    -0.5429203941
H     -0.0568712120    -4.1691798678    -0.4313290121
H      0.5857446771    -5.7540175244    -0.9323622597
H      0.9033430001    -4.3161373052    -1.9262969555
C     -6.1051480109     0.5452323616    -0.0407881086
H     -4.9515073262    -0.9068111142     1.0705862664
C     -5.8085145578    -1.9097926180    -0.6093606572
H     -7.0723683753     0.3117673572     0.4364539562
H     -6.3047227986     0.8532133567    -1.0817286283
H     -5.6739493154     1.4110447808     0.4886901792
C     -6.1803187157    -1.9374519913    -1.9680689087
C     -6.7735264103    -3.0764608320    -2.5242710633
C     -7.0094487391    -4.2120588641    -1.7385199745
C     -6.0500067135    -3.0540200135     0.1704865546
H     -7.0552354241    -3.0777298197    -3.5844183002
H     -6.0055412681    -1.0577878774    -2.5990119532
H     -3.5144837165     6.8696504318    -0.3049755429
C     -2.9699938254     5.9190190065    -0.3248585115
H     -2.3668102740     6.0263979197     1.7525741997
C     -2.3271176528     5.4446199588     0.8235441205
C     -2.9080217478     5.1599911281    -1.5005525016
H     -3.4060486725     5.5186128843    -2.4095094581
C     -1.6317738832     4.2283442639     0.7987665825
C     -2.2140841027     3.9450784136    -1.5273982793
H     -1.1341924080     3.8642387868     1.7051293175
H     -2.1763683556     3.3680307462    -2.4590984717
C     -1.5644067838     3.4583450887    -0.3757812446
C     -6.6442664732    -4.1934441881    -0.3881554816
H     -7.4744762651    -5.1026822416    -2.1760665709
H     -6.8233443341    -5.0745191077     0.2400928173
H     -5.7663415108    -3.0479947898     1.2302779830
H      3.8366085379     3.6130442127     3.6585938249
C      2.6030758420     2.0590007878     2.7773368338
C      3.4291161282     3.1867883151     2.7350236158
H      2.3594780290     1.5979727085     3.7416826189
C      2.0831300733     1.5052279775     1.5992227051
H      4.3817835517     4.6403340663     1.4394561992
C      3.7310703262     3.7592484063     1.4931160250
H      1.4413620466     0.6199391246     1.6624122705
C      2.3770666193     2.0757425196     0.3474870758
C      3.2108835956     3.2115076056     0.3157688884
H      3.4557185274     3.6645137129    -0.6525640655
H      6.0177550054     0.8251785691    -5.4630971768
C      4.1208625128     0.0185013087    -4.7772512856
C      5.4158904347     0.5217157098    -4.5991856898
H      3.7046144277    -0.0747918829    -5.7876662782
C      3.3504133686    -0.3676391952    -3.6746717068
H      6.9414542880     1.0256952428    -3.1468612054
C      5.9294924938     0.6322436038    -3.3026031285
H      2.3388337985    -0.7591221118    -3.8359697443
C      3.8582937443    -0.2586992098    -2.3651948546
C      5.1600540402     0.2459490642    -2.1972421215
H      5.5724879685     0.3354326780    -1.1849277386
H      6.2164796188    -2.5630603999     4.0628824654
C      5.8069178794    -3.0895295113     1.9957004741
C      5.4613580404    -2.6254890310     3.2712124136
H      6.8392613880    -3.3950926058     1.7864111202
C      4.8456159647    -3.1675315574     0.9814138495
H      3.8502052955    -1.8745886063     4.5110437635
C      4.1389975213    -2.2415701336     3.5188458792
H      5.1388780027    -3.5352028042    -0.0087397001
C      3.5116036223    -2.7809822106     1.2178355214
C      3.1772625608    -2.3208038927     2.5036997080
H      2.1430870708    -2.0188227391     2.7076673632
H     -1.7575898389    -0.7508234876     5.1670975690
C     -1.5295037141    -1.2351579152     3.0612852231
C     -1.9821863092    -0.4582552516     4.1353447317
H     -0.9451543433    -2.1434504337     3.2500269651
C     -1.8170468617    -0.8615472718     1.7438886899
H     -3.0878728111     1.3164217110     4.6993904872
C     -2.7261276620     0.6963044483     3.8703276086
H     -1.4567991845    -1.4880561741     0.9190048754
C     -2.5668534740     0.2972504875     1.4636904859
C     -3.0153724858     1.0694012063     2.5511114622
H     -3.5982707045     1.9771992223     2.3559687337
H     -3.4813023365     1.6463352857     0.0734575194
H     -0.4147472658     1.9549036742     0.6246348433
H      2.5052284767     1.8571151093    -1.7623003300
H      3.6287568054    -0.4712902465    -0.2481988118
H      1.5198796965    -2.4228780936     0.5155427502
