104
ps config_40760 from config_40760.mcos (coord_rad bohr -> angstrom)
C      5.5600775841    -1.0834075074    -2.5392468319
C      5.3196284232     0.3866946531    -2.1137980349
C      4.2981532048     0.6097670627    -0.9614828995
H      4.9798749872     0.9517169883    -3.0026333729
H      6.2878369035     0.8361373160    -1.8248707282
C      2.8617425355     0.2559277359    -1.4159163281
C      1.7663337248     0.3717578320    -0.3218570492
H      2.8504788464    -0.7736945831    -1.8175350931
H      2.5827656599     0.9124775375    -2.2620878173
C      0.3756161358     0.2045692523    -0.9872810742
C     -0.8456985915     0.4685255568    -0.0693720232
H      0.2942109744    -0.8209300243    -1.3954619285
H      0.3201937965     0.8830604098    -1.8598396266
C     -2.1387330519     0.0664950410    -0.8253861507
C     -3.4426708205     0.1110014499     0.0115933133
H     -2.0057790372    -0.9531096162    -1.2342701846
H     -2.2616242995     0.7313548002    -1.7017161133
C     -4.6506568199    -0.1101173628    -0.9404612725
C     -6.0570290893     0.0007287818    -0.2910352892
H     -4.5491667069    -1.1092136209    -1.4048887307
H     -4.5779747265     0.6209711697    -1.7683863599
C     -6.3677534557     1.4501358299     0.1591581339
C     -7.6792853408     1.5836652338     0.9483319192
H     -6.3897686611     2.1081984320    -0.7299672380
H     -5.5337508816     1.8148967963     0.7856936259
H     -7.6653375147     0.9449411889     1.8492727778
H     -8.5514770761     1.2865833413     0.3414460421
H     -7.8407672599     2.6247687848     1.2780642550
C      6.4894054984    -1.1096571822    -3.7755199366
H      4.5911895970    -1.5210985887    -2.8466186170
C      6.1257330328    -1.9609446602    -1.4213952691
H      6.0394841646    -0.5448182584    -4.6111857848
H      6.6667417465    -2.1429004333    -4.1191445777
H      7.4679080786    -0.6545412448    -3.5440428385
C      7.2768936416    -1.5861029015    -0.7012906276
C      7.8147007791    -2.4248305335     0.2814433458
C      7.2182526956    -3.6592429465     0.5684554573
C      5.5370936048    -3.2032484591    -1.1251384313
H      8.7107314636    -2.1098252533     0.8296870691
H      7.7613082052    -0.6252982351    -0.9123723011
H      2.5137667233    -3.1562996540     3.7828226252
C      2.3659904635    -2.4513049739     2.9571239896
H      2.6296619039    -0.6910806397     4.1902801793
C      2.4296603397    -1.0718948002     3.1813135095
C      2.1092877667    -2.9164052858     1.6610892564
H      2.0552103844    -3.9940380099     1.4659442486
C      2.2385658445    -0.1683794576     2.1275875531
C      1.9201186736    -2.0140971251     0.6084307702
H      2.2879025368     0.9100935300     2.3168321971
H      1.7203730645    -2.4017949673    -0.3977519992
C      1.9797992727    -0.6232564832     0.8212207202
C      6.0759849014    -4.0432785184    -0.1421073901
H      7.6404787873    -4.3144361757     1.3387527219
H      5.5959430636    -5.0062140245     0.0698992856
H      4.6428251419    -3.5138165154    -1.6791523163
H     -1.0477814459     5.6369225820     1.6903473210
C     -1.0691376413     4.3156667069    -0.0347650214
C     -1.0058184896     4.6011956953     1.3351885226
H     -1.1615864070     5.1317587187    -0.7613913911
C     -1.0159769198     2.9923372828    -0.4860560781
H     -0.8366252079     3.7502425035     3.3191364426
C     -0.8877319877     3.5435781982     2.2432302934
H     -1.0676008539     2.7925084280    -1.5630285913
C     -0.8979732282     1.9185520376     0.4178009592
C     -0.8345116397     2.2183739622     1.7909488052
H     -0.7425123892     1.3982989266     2.5123144422
H     -3.4613230544    -3.4707675506     4.1348289754
C     -3.2793915625    -3.1921702656     1.9877130211
C     -3.4531652937    -2.7533255586     3.3066577941
H     -3.1501267588    -4.2607910609     1.7784274636
C     -3.2690555392    -2.2756442934     0.9305768321
H     -3.7526026333    -1.0253641611     4.5776644070
C     -3.6160083913    -1.3855916442     3.5508432113
H     -3.1339246416    -2.6413881893    -0.0943203976
C     -3.4318883778    -0.8960337824     1.1631107710
C     -3.6055352714    -0.4680335871     2.4919927667
H     -3.7308829975     0.6018625583     2.6957686588
H     -9.8189868015    -2.0122113144    -3.6961311103
C     -8.3358203875    -0.4610497164    -3.3601428825
C     -9.0663350569    -1.6045346648    -3.0118901851
H     -8.5161667820     0.0302116064    -4.3240651870
C     -7.3748637845     0.0616097484    -2.4871655720
H     -9.3885450418    -3.1124658462    -1.4904136787
C     -8.8231396669    -2.2176564420    -1.7780576783
H     -6.8151387923     0.9590434460    -2.7771978041
C     -7.1224492997    -0.5484421294    -1.2428319558
C     -7.8614704791    -1.6953710601    -0.9029979658
H     -7.6768790686    -2.1826971999     0.0621638780
H      4.8732653278     5.7360557280     0.8305928147
C      4.1887717022     4.4576373907    -0.7870493085
C      4.7470190160     4.7080479349     0.4727756463
H      3.8757716317     5.2947259687    -1.4227383821
C      4.0255566326     3.1449926034    -1.2445454776
H      5.5776774114     3.8048988296     2.2579070505
C      5.1405362781     3.6261332199     1.2679896220
H      3.5873742086     2.9724104335    -2.2347964223
C      4.4178114015     2.0488807082    -0.4518857589
C      4.9782915654     2.3118739740     0.8110200155
H      5.2890667111     1.4708252618     1.4423255891
H      4.5761649751    -0.0611444793    -0.1262002063
H      1.8205870984     1.3908540462     0.1056032292
H     -0.7530262431    -0.1829616081     0.8204426971
H     -3.5190338322     1.1234126228     0.4516195722
H     -6.0639514691    -0.6410900030     0.6128528061
