104
ps config_68590 from config_68590.mcos (coord_rad bohr -> angstrom)
C     -5.4585935300     0.3370872503     2.4835052211
C     -4.8966174753     1.5448176780     1.6927742120
C     -3.8521165084     1.2156996778     0.5873823217
H     -4.4385359019     2.2470351346     2.4150121979
H     -5.7404987443     2.0937393746     1.2351348066
C     -2.5279577222     0.7100435661     1.2084595940
C     -1.4339553185     0.2775536732     0.1952943782
H     -2.7428688650    -0.1420212732     1.8788161146
H     -2.1111325473     1.5051389037     1.8557713604
C     -0.1162855716     0.0110439131     0.9680001199
C      1.1349669599    -0.2658575861     0.0950142374
H     -0.2670070133    -0.8496410352     1.6470960121
H      0.0879102159     0.8795668614     1.6227201563
C      2.3066462289    -0.6890747976     1.0217268559
C      3.5741089872    -1.2097798573     0.3023233564
H      1.9407034812    -1.4734114329     1.7116470028
H      2.5790738229     0.1704853792     1.6607901593
C      4.6959149586    -1.5477125165     1.3263934099
C      5.3290597076    -0.3469560456     2.0760575401
H      5.4983760985    -2.1017214777     0.8048071840
H      4.2858119297    -2.2486447610     2.0782186778
C      6.3005377140    -0.8890918558     3.1609287608
C      6.8828717293     0.1924492884     4.0820259097
H      7.1187387784    -1.4454042312     2.6655496816
H      5.7488143117    -1.6304973077     3.7702648988
H      6.0792568648     0.7626648748     4.5807314519
H      7.5063796542     0.9117674456     3.5244005260
H      7.5137753482    -0.2564257897     4.8686949894
C     -6.3687206166     0.8537551187     3.6225802140
H     -4.6116507133    -0.1966388097     2.9553488507
C     -6.2080923954    -0.6717858448     1.6115465219
H     -5.8030627287     1.5170192172     4.3007766108
H     -6.7719240933     0.0189357346     4.2205824399
H     -7.2211898912     1.4263663637     3.2181056997
C     -7.2416697652    -0.2705524744     0.7427223269
C     -7.9560846136    -1.2117371308    -0.0071163770
C     -7.6580450641    -2.5766362687     0.0929413523
C     -5.9193032325    -2.0449601129     1.7043580111
H     -8.7553857593    -0.8742614951    -0.6778639668
H     -7.4932376421     0.7927972945     0.6516556241
H     -2.9585056785    -4.0115232275    -2.8265887196
C     -2.6544946328    -3.1528183607    -2.2176285020
H     -2.5253468230    -1.7931142199    -3.8977584615
C     -2.4111002506    -1.9105599307    -2.8132171889
C     -2.5023514603    -3.2814101312    -0.8312090737
H     -2.6880979729    -4.2472763721    -0.3465361320
C     -2.0200356055    -0.8115512670    -2.0370604349
C     -2.1134818586    -2.1835715830    -0.0555618157
H     -1.8295370007     0.1558123277    -2.5158458889
H     -2.0009048701    -2.3082387493     1.0281746150
C     -1.8642163198    -0.9283227951    -0.6432873027
C     -6.6350407702    -2.9871468563     0.9544207206
H     -8.2181953527    -3.3120523056    -0.4955336746
H     -6.3881285188    -4.0518249094     1.0446701902
H     -5.1207239038    -2.3762735386     2.3793183320
H      2.4070487409     3.9863112198    -3.0913651437
C      2.1104171382     3.2811626618    -1.0572740913
C      2.1544873479     3.1349043918    -2.4495429841
H      2.3302603439     4.2536811566    -0.6010062716
C      1.7870311611     2.1926896898    -0.2395162782
H      1.9001990492     1.7527016894    -4.0966735747
C      1.8700861987     1.8842173815    -3.0081526873
H      1.7594539235     2.3311874843     0.8479924958
C      1.4963885968     0.9294055383    -0.7897573435
C      1.5440772329     0.7946129898    -2.1898152241
H      1.3203064541    -0.1794093216    -2.6398809530
H      2.7282600851    -5.6358954871    -2.7822113574
C      2.5010367952    -4.7372047269    -0.8173952538
C      2.8873774669    -4.7455156919    -2.1636166097
H      2.0365751811    -5.6273670944    -0.3761921277
C      2.7024487405    -3.6000455836    -0.0266594186
H      3.7851416499    -3.5893247166    -3.7602359398
C      3.4786597020    -3.5997818723    -2.7071571392
H      2.3939229762    -3.6162245551     1.0254562843
C      3.2960033241    -2.4414583515    -0.5642113691
C      3.6812440090    -2.4610158709    -1.9168119065
H      4.1444047423    -1.5677555593    -2.3527141371
H      7.8552434799     3.2158956674    -1.2012479536
C      7.6851768615     1.1402051946    -0.5825377132
C      7.3450757233     2.4986863692    -0.5483870300
H      8.4675260682     0.7887225018    -1.2658673513
C      7.0335627412     0.2238380077     0.2501819731
H      6.0677127878     3.9866919151     0.3714915119
C      6.3450462260     2.9264020915     0.3313176615
H      7.3167733623    -0.8348578039     0.2094143865
C      6.0231101894     0.6416957820     1.1383562385
C      5.6924155279     2.0084981202     1.1647499429
H      4.9115797056     2.3536439720     1.8529771726
H     -3.2831423928     5.6328878585    -2.5726315857
C     -2.9094240331     4.7503344085    -0.6229649164
C     -3.3870667792     4.7445065178    -1.9395912115
H     -2.4285304614     5.6496927660    -0.2196122604
C     -3.0401755704     3.6157510769     0.1860555022
H     -4.3761949569     3.5657822586    -3.4641808626
C     -3.9982476786     3.5874168418    -2.4347781594
H     -2.6602729756     3.6432240801     1.2143301036
C     -3.6528751653     2.4455769458    -0.3028696538
C     -4.1303131878     2.4513737295    -1.6258083680
H     -4.6101755751     1.5492187301    -2.0235924216
H     -4.2705374230     0.4112217057    -0.0474905000
H     -1.2596268320     1.1223235548    -0.4975943086
H      0.9053558771    -1.1189051339    -0.5710660564
H      3.9496519502    -0.4124617144    -0.3671981287
H      4.5272408976     0.2015744948     2.6078082627
