104
ps config_69370 from config_69370.mcos (coord_rad bohr -> angstrom)
C     -5.7076012227    -0.5748135798    -0.1795950277
C     -4.1973547569    -0.6798384490    -0.5177207141
C     -3.3773016479     0.6282045540    -0.3420550190
H     -4.0862350766    -1.0194707121    -1.5655028664
H     -3.7418227628    -1.4666507307     0.1124093734
C     -1.9270566652     0.3668888040    -0.8312577242
C     -1.0221600690     1.6208387270    -0.8751464773
H     -1.9731174937    -0.0795787048    -1.8423278410
H     -1.4607640825    -0.3968793082    -0.1868392401
C      0.4425864606     1.3059274316    -1.3064193873
C      1.3542016488     0.6186434700    -0.2474859209
H      0.9184159553     2.2712445275    -1.5619979767
H      0.4351226263     0.7153122134    -2.2408720749
C      2.8376348169     0.8685409339    -0.6464399305
C      3.8916066308     0.4594996180     0.4101054886
H      2.9613482805     1.9438181563    -0.8742525288
H      3.0416206042     0.3342502889    -1.5920924471
C      5.3359891286     0.7011925874    -0.1201066005
C      5.7920596487    -0.2148473723    -1.2825798877
H      6.0475905682     0.5910189512     0.7188196839
H      5.4128597222     1.7553412391    -0.4415898822
C      7.1936542674     0.2157502588    -1.8078230056
C      7.2152639682     1.5802759323    -2.5161724939
H      7.5489665139    -0.5586777325    -2.5129020159
H      7.9082249386     0.2148965533    -0.9629160847
H      8.2183465847     1.7906500584    -2.9262258156
H      6.9590298757     2.4100767896    -1.8366820539
H      6.4997917131     1.6001152230    -3.3573982544
C     -6.4546205259     0.3522590132    -1.1618376900
H     -5.7933393045    -0.1415368779     0.8365272618
C     -6.3485350274    -1.9635643495    -0.1297814741
H     -6.3621735924    -0.0103988151    -2.2002085559
H     -6.0525734665     1.3783912611    -1.1277312404
H     -7.5289327867     0.4076823572    -0.9153416643
C     -6.3993925092    -2.7842612891    -1.2739226025
C     -6.9845765861    -4.0543053295    -1.2174043467
C     -7.5318198910    -4.5334940678    -0.0200459710
C     -6.9005334343    -2.4534811929     1.0664354520
H     -7.0142235948    -4.6779028998    -2.1193925336
H     -5.9789255117    -2.4256342615    -2.2210604302
H     -2.9074317706     5.5370874653    -4.1803551916
C     -2.5365090582     4.7483273873    -3.5162713676
H     -2.3541128902     6.0497730215    -1.7940594061
C     -2.2258256181     5.0318747249    -2.1818149088
C     -2.3675349079     3.4416211081    -3.9914599989
H     -2.6061611762     3.2049407655    -5.0355165646
C     -1.7530014731     4.0226289584    -1.3329750077
C     -1.8968535903     2.4316075740    -3.1444668833
H     -1.5136796409     4.2543509979    -0.2880634971
H     -1.7718832101     1.4151993093    -3.5361913562
C     -1.5832706342     2.7073755606    -1.7993460593
C     -7.4862583887    -3.7252202665     1.1209139357
H     -7.9902298018    -5.5279969756     0.0215564914
H     -7.9115437738    -4.0860112171     2.0653996688
H     -6.8689197522    -1.8260212497     1.9658453951
H      0.3837738160    -4.7084786556     0.4771051247
C      0.8946327279    -3.1439845112    -0.9426752473
C      0.5794018963    -3.6407037308     0.3285305551
H      0.9482400906    -3.8252173155    -1.8001295329
C      1.1428675115    -1.7798969581    -1.1290804413
H      0.2762466900    -3.1233467467     2.4090102896
C      0.5191144046    -2.7510407366     1.4064797361
H      1.3866553111    -1.4136360688    -2.1336727002
C      1.0762368389    -0.8729880240    -0.0541931995
C      0.7651084430    -1.3845604359     1.2194619012
H      0.7109497325    -0.6977306986     2.0724025090
H      3.4036973793     3.0778199377     5.1777099767
C      3.5479070979     3.2752396258     3.0190275378
C      3.4911370572     2.5548704048     4.2187458916
H      3.5053672790     4.3710028621     3.0364321419
C      3.6574907909     2.6083792567     1.7932600596
H      3.5016114822     0.5782976322     5.1047980682
C      3.5470147937     1.1574732826     4.1745122953
H      3.7020105180     3.1929581508     0.8666452433
C      3.7131289348     1.2022150324     1.7378367963
C      3.6568862452     0.4886824857     2.9485944998
H      3.6979468173    -0.6068335241     2.9248989140
H      5.9943847880    -5.5337427247    -0.0687761367
C      6.5480735316    -3.5234223896     0.5393816669
C      5.9454978741    -4.4646927488    -0.3045536403
H      7.0742841874    -3.8565027563     1.4421293207
C      6.4850998218    -2.1570357761     0.2424445322
H      4.8007729963    -4.7431998706    -2.1232494588
C      5.2792900954    -4.0201080054    -1.4517938485
H      6.9641122116    -1.4376864271     0.9169874581
C      5.8152939735    -1.6978526758    -0.9086022802
C      5.2164457703    -2.6529297310    -1.7494946359
H      4.6942741067    -2.3140840291    -2.6525966612
H     -3.6369668847     2.4778139343     4.7906458094
C     -2.9537536206     0.8856528807     3.4789838543
C     -3.5788172691     2.1071057833     3.7611429485
H     -2.5167960026     0.2932807033     4.2918527782
C     -2.8795616750     0.4129070879     2.1641400299
H     -4.6200544341     3.8051942044     2.9114765036
C     -4.1279940730     2.8462692849     2.7081796282
H     -2.3860033678    -0.5456691147     1.9648449991
C     -3.4296179635     1.1475583783     1.0957033705
C     -4.0548695755     2.3730210838     1.3913757097
H     -4.4866623779     2.9626079261     0.5741274293
H     -3.8101733115     1.4060402614    -0.9986319714
H     -0.9786750824     2.0488754993     0.1458401590
H      1.1781560135     1.1258359423     0.7206980681
H      3.7810201517    -0.6216038103     0.6183106049
H      5.0837550202    -0.0961226705    -2.1263018768
