84
nylon66 config_84570 from config_84570.mcos (coord_rad bohr -> angstrom)
C     -2.1737023151     2.9648667124    -0.9179390740
C     -0.8559458208     2.1824522855    -0.8647063620
C     -0.3372645410     1.7386259761     0.5149461053
H     -0.1083071139     2.8211322902    -1.3659295195
H     -1.0007596423     1.3085292195    -1.5275697100
C      1.0633531983     1.0946283130     0.4609520495
H     -1.0364200127     1.0149039373     0.9773947056
H     -0.2929981791     2.6149258720     1.1871626164
C      1.0960024034    -0.2618613486    -0.2738501292
H      1.4263964997     0.9372961443     1.4914525237
H      1.7711089532     1.7954293423    -0.0216425402
C      2.4542780254    -0.9533162533    -0.1314173706
H      0.8286462398    -0.1436520334    -1.3376073957
H      0.3458786572    -0.9368126071     0.1792884507
O     -2.4616182149     3.6468529613    -1.9193563752
O      2.9313569067    -1.2282273937     0.9848888993
N      3.0878685678    -1.2474032374    -1.2976357784
C      4.4001327559    -1.8935375272    -1.3708750016
H      2.6443643274    -0.9726018519    -2.1711833543
C      5.5460718191    -0.8980844972    -1.6339070805
H      4.3669507307    -2.6530543891    -2.1726490494
H      4.5594224136    -2.4156758439    -0.4133581548
C      6.9087685886    -1.6041046125    -1.7364273337
H      5.5658878061    -0.1491065220    -0.8197752690
H      5.3400693045    -0.3446373320    -2.5702168408
C      8.0633929144    -0.6292761324    -2.0310749972
H      6.8676486337    -2.3692238771    -2.5368045147
H      7.1031868545    -2.1514925226    -0.7939705250
C      9.4352185561    -1.3102954328    -2.1993573621
H      8.1238058970     0.1299731427    -1.2270368969
H      7.8314122027    -0.0708068664    -2.9581783189
C     10.0416678035    -1.8817255564    -0.9028995169
H     10.1535566451    -0.5927686130    -2.6396793155
H      9.3515218689    -2.1418166517    -2.9251535757
N     10.4173029397    -0.8380532913     0.0545488848
H     10.9383080441    -2.4810515641    -1.1491689472
H      9.3320919781    -2.5436887108    -0.3822670790
H     -7.4651857485     0.4885353783     0.3457108776
H     -4.4648362439     3.8438768349     1.2663575412
H     -7.0120531397     3.5788481228     0.9629559610
H     11.2442442787    -0.1403030705     2.8966640490
H     -9.4039112221     0.0296856364    -1.1791324426
H     -7.8381615396     2.0629671370    -1.6001090123
H     -5.4493142093     1.6560842858     0.4653997115
C      9.5007108269     1.1607321951     2.9633147678
C     -9.9518755651    -3.0612477604     1.4389884490
C     10.5589385533     0.3562924546     2.1841764467
C      9.9496089949    -0.7612737533     1.3297644471
C     -8.3250032987     1.1825380040     0.3285343932
C     -6.8349447155     3.2585111711    -0.0827544556
C     -4.3178802514     3.4911289165     0.2299046169
C     -5.4700756433     2.5537899557    -0.1796407053
C     -8.0253058197     2.4014291908    -0.5620594162
C     -9.5678270055    -2.0150917762     0.3875844088
C     -9.5689985220     0.4152792801    -0.1595758695
N     -3.0015347865     2.8516035238     0.1521387750
N     -9.9031038346    -0.7317401494     0.6871364921
O     -8.9790535095    -2.3292162816    -0.6630913044
O      9.1062314334    -1.5510507686     1.7923050726
H    -10.3731761400    -0.5494336388     1.5708562339
H     -6.8004278422     4.1857712716    -0.6863803699
H     -4.2945449152     4.3736811978    -0.4302352682
H     -8.4874659969     1.5151645028     1.3717055251
H    -10.4433998919     1.0900439099    -0.1875236426
H     -5.3006550936     2.2064182123    -1.2161426383
H     -8.9275915670     3.0414557734    -0.6055997022
H     11.1746220845     1.0306790703     1.5624785565
H     -2.7122175502     2.2656379637     0.9320498125
C    -10.7120753555    -4.2588977392     0.8351868032
H    -10.5428661834    -2.6014099707     2.2509662774
H     -9.0039185035    -3.4133814091     1.8869321277
H     11.1174809574    -0.1591448288    -0.2393605791
C      8.6089919611     2.0286021023     2.0626943618
H     10.0224591382     1.7997247188     3.6987406565
H      8.8805074164     0.4548486377     3.5432122633
H      7.8866544011     2.6111471146     2.6595333684
H      8.0307739169     1.4117667418     1.3516003116
H      9.2120360854     2.7419649848     1.4734674841
C    -12.1183716133    -3.8982701112     0.3326284858
H    -10.7815356355    -5.0492596805     1.6043897175
H    -10.1099298568    -4.6756780543     0.0086894953
H    -12.6421118283    -4.7878139958    -0.0568064769
H    -12.0787942261    -3.1536171793    -0.4824314445
H    -12.7347117872    -3.4731406293     1.1444713974
