84
nylon66 config_77070 from config_77070.mcos (coord_rad bohr -> angstrom)
C      2.8571302606    -0.2145378749     0.7973742048
C      2.3387769661     1.0571418961     0.1238052586
C      0.9024477753     1.4012607466     0.5692146191
H      2.3874773330     0.9727730579    -0.9764909330
H      3.0191671658     1.8766444732     0.4205500962
C      0.4145193275     2.7345610866    -0.0208528150
H      0.8715298122     1.4468777618     1.6729288171
H      0.2205754772     0.5840701426     0.2639027009
C     -1.0060604441     3.1202584722     0.4357787304
H      0.4291382003     2.6860121066    -1.1248058516
H      1.1106430451     3.5420956115     0.2722382050
C     -2.0816033535     2.1963288549    -0.1450086712
H     -1.2415828346     4.1385412968     0.0752324275
H     -1.0633673188     3.1462572769     1.5383323755
O      3.0006939748    -0.2818554631     2.0321902056
O     -2.1459752847     1.9539789779    -1.3640440704
N     -2.9538849978     1.6724332745     0.7565681282
C     -4.0785781944     0.8080381957     0.3923199660
H     -2.8446271289     1.9246076686     1.7361343684
C     -5.4173328207     1.5642541655     0.2979535842
H     -4.1502932027     0.0028431399     1.1453322443
H     -3.8335802091     0.3456492460    -0.5780159440
C     -6.5839793096     0.6229711576    -0.0453225408
H     -5.3303285689     2.3565315342    -0.4693882405
H     -5.6165185313     2.0737241050     1.2600762695
C     -7.9351282924     1.3515744396    -0.1549502146
H     -6.6561467003    -0.1680899647     0.7271914197
H     -6.3694105877     0.1039318690    -1.0003288803
C     -9.1020618864     0.4048836474    -0.4821821109
H     -7.8663943844     2.1354009313    -0.9350064057
H     -8.1457324078     1.8790459869     0.7963088585
C    -10.4416757860     1.1567152223    -0.5980428967
H     -9.1919255844    -0.3698141824     0.3024958110
H     -8.8995436760    -0.1268051630    -1.4316958314
N    -11.5657473112     0.2736228182    -0.9157860034
H    -10.3761724508     1.9305295900    -1.3840038770
H    -10.6820217685     1.6570235694     0.3543688969
H      8.4256310750    -0.4004958104     0.0228310984
H      3.6311309909    -2.5366181507     1.5018829738
H      5.9072082970    -0.9496824235     0.1281030093
H    -14.5072911100    -0.6673137866    -0.2624529600
H      9.9940856754    -1.7530388522    -1.4026791535
H      7.4674394163    -2.3092106630    -1.3300055454
H      4.9785516445    -2.8691100007    -1.2643090721
C    -13.4494302903    -2.5279765349     0.1216336342
C     12.7599432767     0.8024591734     0.1643813728
C    -13.5335368137    -1.1255708971    -0.5176263289
C    -12.4498141217    -0.1850396007     0.0103992550
C      8.6430426448    -1.4531601721     0.2849533858
C      6.1397201759    -2.0059443574     0.3638162263
C      3.6164394130    -2.5613431373     0.4000347751
C      5.0095328638    -2.9083124871    -0.1575566732
C      7.5149954884    -2.3659603038    -0.2246210974
C     11.6374418388     0.0300570834    -0.5297669802
C     10.0114707395    -1.8442505336    -0.3042670437
N      3.1324618787    -1.2503457924    -0.0404625012
N     11.1057867870    -1.0005856176     0.1807180366
O     11.2558816655     0.3256300722    -1.6776376727
O    -12.3897022650     0.1299446046     1.2135900466
H     11.4567952721    -1.1708782308     1.1204782451
H      6.1829798277    -2.0763761798     1.4686112998
H      2.8878441548    -3.3326292956     0.0888693374
H      8.6944464594    -1.5013738205     1.3896653359
H     10.2463113828    -2.8942960564    -0.0527323497
H      5.2205720549    -3.9620672414     0.1070134234
H      7.7563927971    -3.4194390332     0.0206934691
H    -13.4875532898    -1.2058834867    -1.6184447410
H      2.9707078025    -1.1175392346    -1.0370665118
C     14.0979581066     0.6988490622    -0.5977118450
H     12.8888007268     0.4633925131     1.2077684503
H     12.4435336107     1.8617583009     0.2010088365
H    -11.6649143188    -0.0440918021    -1.8773201272
C    -14.5985459613    -3.4419109730    -0.3272553520
H    -13.4596353031    -2.4165751575     1.2203279977
H    -12.4788439440    -2.9899752961    -0.1398632308
H    -15.5781598614    -3.0155983703    -0.0476389449
H    -14.5199131870    -4.4387498453     0.1395834499
H    -14.5950920461    -3.5842683359    -1.4225954479
C     15.1962719979     1.5657273352     0.0344676003
H     13.9308272462     1.0019872652    -1.6463191969
H     14.4225588389    -0.3584638663    -0.6222505679
H     16.1441286595     1.4769388972    -0.5236525818
H     15.3939497553     1.2662656746     1.0791505144
H     14.9074608663     2.6315819167     0.0401265120
