84
nylon66 config_23290 from config_23290.mcos (coord_rad bohr -> angstrom)
C     -5.5493439108     2.8328332956     0.1960964214
C     -4.1876607054     3.4807506717     0.4508504536
C     -3.0876678577     2.4255544959     0.7402418970
H     -4.2940478262     4.1611344836     1.3137311624
H     -3.8909444476     4.0933702238    -0.4183875635
C     -3.1756749021     1.8037191953     2.1454104247
H     -2.1029003864     2.9105714795     0.6125097073
H     -3.1414207457     1.6301376231    -0.0276679258
C     -2.2748515650     0.5669456124     2.3250621071
H     -4.2187274033     1.5071280075     2.3538567493
H     -2.9049177471     2.5654259466     2.8988495835
C     -0.7789076986     0.8760330877     2.2039115212
H     -2.5526354365    -0.2175391948     1.6009872651
H     -2.4285331013     0.1493106156     3.3377706783
O     -6.2902819208     2.4483296500     1.1210766710
O     -0.2480841825     1.8113351882     2.8365025441
N     -0.0862471729     0.0429019273     1.3864374263
C      1.3573277420     0.1505668352     1.1677404128
H     -0.5969984446    -0.6931038952     0.8826791494
C      1.7079791154     0.8310431792    -0.1715270257
H      1.7884111993    -0.8672336143     1.1900777347
H      1.7748639828     0.7159337326     2.0157835590
C      3.2244359688     0.8777432527    -0.4477549074
H      1.2916982431     1.8562320323    -0.1759083070
H      1.2030662352     0.2820109468    -0.9879414787
C      4.0063043583     1.8066404813     0.5017853827
H      3.3860866037     1.2210544654    -1.4878936469
H      3.6295949207    -0.1514853372    -0.3998798869
C      5.4849317352     2.0026309818     0.1095653558
H      3.9577482169     1.4259797604     1.5401731578
H      3.5086337381     2.7954315819     0.5159834622
C      6.3286507011     0.7237471696     0.2819010402
H      5.9264196081     2.8036221285     0.7315309697
H      5.5549886014     2.3435334783    -0.9408541689
N      7.7435190343     0.9363854419    -0.0294946091
H      5.9735688070    -0.0763513535    -0.3854911141
H      6.2489114519     0.3600685941     1.3228882250
H     -6.1084670273    -3.2960306396    -1.2101313326
H     -7.4600046442     1.3898377343    -0.7486386820
H     -5.5085687934    -0.4725595396    -3.5566812242
H     10.1016188431     0.7520998304    -2.3570374789
H     -4.8786658327    -1.8662039154     0.4424821608
H     -7.3743300493    -1.5728186482    -2.3061852736
H     -6.3706560673     1.7604541027    -3.6241704000
C     10.7260782901    -0.0719679216    -0.4305901482
C     -1.3918877847    -4.4457153070    -0.0433668988
C      9.8318983224     0.8532900576    -1.2933886724
C      8.3373390085     0.5326845861    -1.1861009600
C     -5.5231392836    -2.4241692452    -1.5583213899
C     -5.8390989417    -0.0735888881    -2.5793065780
C     -7.0760309936     1.9870014398    -1.5910841618
C     -6.7890320204     1.1153681750    -2.8276270953
C     -6.4701646942    -1.2240668310    -1.7724367762
C     -2.1782974527    -3.1403560769    -0.1620213296
C     -4.4191063952    -2.1224383309    -0.5319254112
N     -5.8643354907     2.6605754513    -1.1168848050
N     -3.5111801153    -3.2621705431    -0.3693687549
O     -1.6105377187    -2.0286502945    -0.0946681977
O      7.7219336788    -0.0793453948    -2.0791584372
H     -3.9172715752    -4.1962800726    -0.3559812806
H     -4.9244989891     0.2959730517    -2.0780151466
H     -7.8523438797     2.7365845618    -1.8388878276
H     -5.0612217895    -2.7177992380    -2.5200230728
H     -3.8006878788    -1.2645367250    -0.8374408035
H     -7.7583638093     0.7479211721    -3.2141248707
H     -6.8194703492    -0.8609712484    -0.7862334392
H     10.0051123271     1.9050802469    -1.0003261288
H     -5.2350782093     3.0457045698    -1.8195004247
C     -0.5663693662    -4.5246945463     1.2581012439
H     -0.7118110443    -4.4770816236    -0.9142718834
H     -2.0652453599    -5.3172454648    -0.1242029861
H      8.2990496847     1.4649318339     0.6405819404
C     10.6407467348    -1.5553765598    -0.8177245719
H     10.4644808109     0.0534824023     0.6361315928
H     11.7690980251     0.2789969254    -0.5324099196
H     10.9095395209    -1.7057018905    -1.8781251733
H      9.6225407312    -1.9564727165    -0.6728529436
H     11.3287939649    -2.1629652139    -0.2056123650
C     -1.4299285686    -4.6467317822     2.5225912356
H      0.0775243840    -3.6298179990     1.3217596277
H      0.1116662311    -5.3938798955     1.1831823005
H     -2.0792970204    -3.7634977475     2.6584668584
H     -0.8020079414    -4.7376249133     3.4250731596
H     -2.0820119905    -5.5366919462     2.4750428436
