84
nylon66 config_93100 from config_93100.mcos (coord_rad bohr -> angstrom)
C     -6.1793503845    -1.6652826480    -0.0844512516
C     -5.8170064987    -2.5086702671    -1.3096379293
C     -4.3800209942    -2.2437382555    -1.8241982194
H     -6.5352758016    -2.3122742430    -2.1258033778
H     -5.9224957723    -3.5665022278    -1.0176838036
C     -3.2772515679    -2.6731095436    -0.8440974319
H     -4.2706111474    -1.1699662462    -2.0681887702
H     -4.2513153672    -2.7916554576    -2.7761436477
C     -1.8657043063    -2.3833658670    -1.3964099517
H     -3.3710564461    -3.7543641384    -0.6342206422
H     -3.4057167650    -2.1506686096     0.1220008393
C     -0.7723987299    -2.9321319260    -0.4786998923
H     -1.7352907122    -1.2984896248    -1.5503498759
H     -1.7438270452    -2.8829689686    -2.3753968781
O     -6.0445652852    -2.0874969137     1.0790529735
O     -0.5980785641    -4.1608006921    -0.3395351800
N     -0.0345055807    -2.0033407712     0.1772802349
C      1.0297334377    -2.3689217861     1.1146982443
H     -0.2549920415    -1.0043290071     0.0489823850
C      2.3955112049    -2.5940680533     0.4349875672
H      0.7250508816    -3.2914336037     1.6393744285
H      1.1077607498    -1.5622518697     1.8645543771
C      3.4717774131    -3.0137046715     1.4518234718
H      2.6921975431    -1.6693018662    -0.0931663922
H      2.2834919152    -3.3805376012    -0.3342731813
C      4.8157796198    -3.4260796598     0.8129167115
H      3.0898471281    -3.8728336290     2.0367246667
H      3.6268842661    -2.1985439324     2.1845475364
C      5.5923515048    -2.3019163338     0.0969947518
H      4.6266414587    -4.2430300616     0.0905132505
H      5.4663677325    -3.8613862950     1.5961940851
C      6.1257416932    -1.2297643486     1.0674080743
H      4.9638900287    -1.8155451282    -0.6714557081
H      6.4501532617    -2.7462688659    -0.4417289341
N      6.9696786641    -0.2354618426     0.4007064987
H      6.7198390924    -1.7115560745     1.8657891457
H      5.2998882304    -0.6788134455     1.5439630997
H     -3.0302132521     4.5923995050     0.6849065515
H     -7.9902286819     1.0041382467     0.3547168482
H     -5.3063537565     2.0127639517    -1.1407949549
H      7.9306306484     2.6600868584     0.2075550794
H     -2.7585656669     3.6207546302    -1.6770195067
H     -5.4395170241     4.4231307995     0.7871267907
H     -5.0390923620     1.2231502415     1.2276342160
C      7.0873093522     2.6535627623    -1.7994710791
C      1.0069303274     2.2121076895     0.2571169306
C      7.6245953796     1.9196469982    -0.5549887913
C      6.5684917104     1.0304675002     0.1096976265
C     -3.4688135498     3.6225263661     0.3844862041
C     -5.7717099932     2.5903766421    -0.3196183911
C     -7.0253965083     0.5593500267     0.6608231574
C     -5.9919586185     1.6783249453     0.9004861674
C     -4.9390355265     3.8544590381    -0.0201987449
C     -0.4514733936     1.9417000231    -0.1177330817
C     -2.6109878251     3.0323273288    -0.7525512079
N     -6.6301909263    -0.4106329771    -0.3639692325
N     -1.1821470158     3.0405622314    -0.4256937535
O     -0.9405553853     0.7904863131    -0.1215506776
O      5.4318661945     1.4582750676     0.3834878568
H     -0.7148795649     3.9456941948    -0.4074995360
H     -6.7602236129     2.9140282274    -0.7013410669
H     -7.1905934315    -0.0087418347     1.5900750234
H     -3.3997445146     2.9653186443     1.2706856589
H     -2.8864606803     1.9887337105    -0.9671725688
H     -6.3579147689     2.2871246492     1.7502397749
H     -4.9591115173     4.5132622235    -0.9098442499
H      8.5231564843     1.3315565702    -0.8137160936
H     -6.7504395632    -0.1508863287    -1.3406272966
C      1.1753070818     2.9007703864     1.6345443499
H      1.4718804856     2.8411228818    -0.5240767986
H      1.5229713596     1.2393704973     0.2537631147
H      7.9056811032    -0.5195968797     0.1198712458
C      6.7855230319     1.7155082290    -2.9780736178
H      7.8330656630     3.4095485278    -2.1052633918
H      6.1761472550     3.2077969145    -1.5131904549
H      7.6849325959     1.1480958713    -3.2761591961
H      6.4379375414     2.2818431900    -3.8588608781
H      5.9980051421     0.9843942249    -2.7220189944
C      0.6222214599     2.0819901077     2.8092506372
H      0.6946197670     3.8959804812     1.6124414068
H      2.2537425505     3.0878341618     1.7844506123
H      0.7955240255     2.6008091176     3.7671940206
H      1.1083575670     1.0926748011     2.8689986746
H     -0.4649185700     1.9145480358     2.7131615277
