84
nylon66 config_93720 from config_93720.mcos (coord_rad bohr -> angstrom)
C      5.4498337687    -3.3287918472    -0.4910341448
C      4.4732406836    -3.8206270293    -1.5653660400
C      3.2900557697    -2.8562540244    -1.8218954389
H      4.0947699806    -4.7980410203    -1.2252144312
H      5.0185471796    -3.9827572354    -2.5128743789
C      2.3821485931    -2.6471474361    -0.6000154324
H      2.6901433654    -3.2684253048    -2.6547007083
H      3.6762991484    -1.8809050599    -2.1734381645
C      1.1790895727    -1.7367410688    -0.9200479100
H      2.9650286336    -2.2044963025     0.2298785467
H      2.0102478341    -3.6232985320    -0.2393615216
C      0.2314449825    -1.5989938420     0.2730620696
H      0.5943802018    -2.1815150809    -1.7470416593
H      1.5274172196    -0.7438374470    -1.2535649595
O      5.4419202120    -3.7814577906     0.6688854820
O     -0.3743069747    -2.5860122249     0.7391565221
N      0.1181807469    -0.3488183561     0.7846151957
C     -0.7523229702    -0.0309061834     1.9171394264
H      0.6399036988     0.4219203795     0.3430302678
C     -2.1506489663     0.4574377692     1.4892972907
H     -0.2530298562     0.7448497758     2.5251108884
H     -0.8465848601    -0.9394450805     2.5359077808
C     -3.0239520845     0.8179820363     2.7040031064
H     -2.6292477406    -0.3332424510     0.8836591509
H     -2.0435146442     1.3416706384     0.8323314444
C     -4.4224935566     1.3601537348     2.3403817829
H     -2.4945919125     1.5783308031     3.3101100249
H     -3.1350355849    -0.0711375682     3.3556390221
C     -5.3538683878     0.3165421060     1.6985557321
H     -4.3143762329     2.2274330868     1.6597355357
H     -4.9028567685     1.7485613743     3.2591879813
C     -6.7570313300     0.8932780281     1.4293476463
H     -5.4425609708    -0.5614022595     2.3669316850
H     -4.9333028041    -0.0510951143     0.7450487978
N     -7.6803367096    -0.0914713813     0.8620811044
H     -6.6957987156     1.7307456693     0.7149901076
H     -7.1951527733     1.2772725039     2.3683734578
H      4.7024358143     1.3741050176     3.1645536818
H      7.3346275259    -2.3220503295     0.8981477576
H      5.0373338209    -0.2452722425     0.5646837254
H     -8.4514619579    -1.8967051224    -1.6201522906
H      2.5343970205     2.0947566820     2.4079750283
H      5.8011274287     2.1725562998     0.3870564077
H      7.1208764671     0.2700532839    -0.7768507352
C    -10.2757811198    -0.7287547110    -1.4289166406
C      2.2275580322     4.0153986219    -1.4228168779
C     -8.9568033699    -1.2837864105    -0.8505244265
C     -7.9830161531    -0.1708791629    -0.4613794297
C      4.7060789719     2.0227131360     2.2688646087
C      5.9603998346     0.1083482945     1.0616688788
C      7.3529994623    -1.7670348739    -0.0537289544
C      7.1770490052    -0.2575210617     0.1955707434
C      5.8721256229     1.6189209655     1.3435323369
C      2.2513049891     2.8566909700    -0.4298327215
C      3.3091937865     1.9430369886     1.6322446595
N      6.3059336160    -2.3503979369    -0.8970587204
N      3.1524414424     2.9490005816     0.5746220896
O      1.4852087228     1.8763384614    -0.5618807893
O     -7.5193793274     0.6159290070    -1.3078740179
H      3.7069602676     3.8005712380     0.6476891320
H      6.0218891066    -0.4345738672     2.0253820958
H      8.3324199775    -1.9503469250    -0.5327765639
H      4.8663535645     3.0521438882     2.6435628782
H      3.1234555706     0.9535752960     1.1830647420
H      8.1005918741     0.1037608536     0.6879066146
H      6.8186211494     1.9488001045     1.8132976516
H     -9.1669773088    -1.9450130789     0.0091542781
H      6.2803333167    -2.0655781015    -1.8749098757
C      2.5949585706     3.5677655641    -2.8538632398
H      2.8983230337     4.8287281006    -1.0940719718
H      1.1973022065     4.4178895030    -1.4205534778
H     -8.0816134138    -0.7832807690     1.4911454602
C    -11.2085380398    -1.8433809859    -1.9238627816
H    -10.0353481635    -0.0387015171    -2.2568616570
H    -10.7884031926    -0.1271927133    -0.6548438010
H    -10.7290834661    -2.4379783724    -2.7213772757
H    -12.1453872272    -1.4266360346    -2.3318422635
H    -11.4782831059    -2.5349769213    -1.1059299602
C      2.4693170253     4.7126029070    -3.8690954217
H      1.9362219415     2.7298977993    -3.1423498106
H      3.6285805442     3.1740719480    -2.8583205364
H      3.1349364853     5.5550801201    -3.6100911181
H      1.4359206452     5.1001576644    -3.9059201633
H      2.7380347874     4.3740875368    -4.8843550120
