84
nylon66 config_63140 from config_63140.mcos (coord_rad bohr -> angstrom)
C      3.0172499711     3.6813558336     0.4758161030
C      2.4594487040     3.3112229968     1.8508681308
C      1.8553060653     1.8897973571     1.8366191809
H      1.6754706760     4.0481683200     2.0990175216
H      3.2427745739     3.3799716931     2.6270201318
C      1.2738768844     1.4757938101     3.1978576646
H      2.6376381366     1.1657312351     1.5406045072
H      1.0722341006     1.8430069252     1.0576620574
C      0.7417381111     0.0256182571     3.2096939849
H      0.4569913320     2.1625017713     3.4865165541
H      2.0553685866     1.5678418386     3.9750603111
C     -0.5191822717    -0.1404835417     2.3566304902
H      0.4636002460    -0.2513099564     4.2421039838
H      1.5312817436    -0.6719007016     2.8794150610
O      2.2694038248     3.9802587745    -0.4735846595
O     -1.5822443277     0.4385688685     2.6605950236
N     -0.3907778478    -0.9379356415     1.2675786433
C     -1.4879121095    -1.2008617230     0.3348806660
H      0.5263395202    -1.3479794549     1.0491211076
C     -2.1026133475    -2.6029719032     0.5205458450
H     -1.0994516085    -1.1005386382    -0.6952870019
H     -2.2447997423    -0.4161577517     0.4914771233
C     -3.2113950966    -2.9170145094    -0.5039254152
H     -2.5009300247    -2.6912080543     1.5494245849
H     -1.2966040380    -3.3544518590     0.4309379888
C     -4.5047491434    -2.1036838392    -0.3121602541
H     -3.4559261355    -3.9952710597    -0.4418100122
H     -2.8211213803    -2.7529066630    -1.5281484140
C     -5.6001123461    -2.4977718993    -1.3169179470
H     -4.2951863596    -1.0221697022    -0.4098574940
H     -4.8802852102    -2.2571933465     0.7186917865
C     -6.9199929469    -1.7213463138    -1.1537403706
H     -5.8325475180    -3.5746526703    -1.2095241823
H     -5.2248457513    -2.3662642607    -2.3510563066
N     -6.7874545414    -0.2941317716    -1.4579960837
H     -7.2872361966    -1.7880914636    -0.1167943953
H     -7.6921278368    -2.1572027024    -1.8145296338
H      4.3016082424    -0.3881485772    -3.9467090929
H      4.3878312982     4.2259277509    -1.6154271474
H      4.1069467078     1.2828782740    -1.1687524032
H     -6.5778804651     2.1093487347    -2.1772994157
H      2.9585799167    -2.0706680009    -2.8501150179
H      6.0725126651    -0.2346549102    -1.4134757934
H      6.4566210242     2.1711605148    -0.5859526766
C     -5.8629035184     2.9528202930    -0.2920186727
C      3.9370930229    -3.2311085729     1.1515989103
C     -6.8727514865     2.1251630899    -1.1127729860
C     -7.0416926919     0.7048545578    -0.5699741982
C      4.7391399441    -0.8378196524    -3.0360399671
C      4.8768429845     1.5022984826    -1.9320925180
C      5.1147972167     3.8514159111    -0.8764294212
C      5.8268444479     2.5874197562    -1.3970582506
C      5.6158500000     0.2088421121    -2.3190693966
C      3.2855787914    -2.3883862141     0.0542127380
C      3.5738658590    -1.4078936456    -2.2117580811
N      4.3714761786     3.6126199631     0.3632880283
N      4.0491374835    -2.1522684039    -1.0394425195
O      2.1152022589    -1.9563435957     0.1415665031
O     -7.3889198608     0.4951124139     0.6071104884
H      4.9837849233    -2.5563276115    -1.0784992622
H      4.3360149168     1.8958223471    -2.8154226185
H      5.8566612067     4.6502881732    -0.6954038419
H      5.3752908572    -1.6737023443    -3.3859543916
H      2.9077638205    -0.6083757554    -1.8487643978
H      6.5242275890     2.8967625198    -2.1986349931
H      6.4606511859     0.4600345456    -2.9894323457
H     -7.8673494501     2.6073098183    -1.0574847775
H      4.9096156797     3.3720737530     1.1938476415
C      4.0066174130    -4.7413827042     0.8108963604
H      3.3410800368    -3.0779471480     2.0653643898
H      4.9574378686    -2.8533760828     1.3449345801
H     -6.5243699740    -0.0362521217    -2.4073369748
C     -5.7832231454     4.4106807315    -0.7670510540
H     -4.8643981022     2.4813525805    -0.3592386877
H     -6.1578268927     2.9143606488     0.7712904912
H     -5.4706432775     4.4733813190    -1.8247061954
H     -5.0549889590     4.9850031474    -0.1690218795
H     -6.7629769705     4.9123378738    -0.6769665670
C      2.6335303548    -5.3984264078     0.6116326996
H      4.5432180690    -5.2441316612     1.6357897434
H      4.6289859264    -4.8883228698    -0.0909238153
H      1.9993928795    -5.2734255663     1.5067386940
H      2.7387634259    -6.4799251218     0.4207296837
H      2.0910946688    -4.9602620155    -0.2441789792
