84
nylon66 config_88080 from config_88080.mcos (coord_rad bohr -> angstrom)
C      3.6106516847     0.9333884936    -0.5026038285
C      3.0425398869     1.2598106296    -1.8902799345
C      1.6481806193     1.8983210410    -1.9841259776
H      3.0613224895     0.3009458890    -2.4398940002
H      3.7993965282     1.8939912416    -2.3870931722
C      1.6060093928     3.3755655943    -1.5398161995
H      0.9311786051     1.2993841421    -1.3935976879
H      1.2992506329     1.8276646567    -3.0305259532
C      0.1861797300     3.8804991733    -1.2559904211
H      2.0636821927     4.0065128238    -2.3227098062
H      2.2163334644     3.5223204950    -0.6318449505
C     -0.4436117736     3.2201707814    -0.0214700857
H     -0.4740598141     3.7250120775    -2.1290340416
H      0.1986065117     4.9716607328    -1.0727279359
O      4.7674295951     0.4559469016    -0.4203550180
O      0.2259916669     2.5620421508     0.8034414309
N     -1.7731751909     3.4283352174     0.1256468431
C     -2.5668278017     2.9110345186     1.2443205172
H     -2.2605599757     3.9561357971    -0.5959248917
C     -3.3531532155     1.6359395312     0.8852518158
H     -3.2614691420     3.7070220988     1.5680415154
H     -1.8706665049     2.7102304590     2.0744221563
C     -4.1940856846     1.1362500839     2.0734675591
H     -2.6417429289     0.8487817984     0.5718721747
H     -3.9992773476     1.8467444150     0.0133855012
C     -4.9481820131    -0.1830518016     1.8040662812
H     -4.9205623914     1.9194576269     2.3667913880
H     -3.5284666460     0.9919705976     2.9461192443
C     -6.0633480916    -0.0685725729     0.7496151581
H     -5.3909746196    -0.5380289714     2.7544464427
H     -4.2241272951    -0.9615044642     1.4926258697
C     -6.8279137243    -1.3962297705     0.5851384151
H     -5.6436490003     0.2266909281    -0.2296392014
H     -6.7768694294     0.7245839095     1.0428169292
N     -7.8855864324    -1.3271324025    -0.4252611978
H     -7.3044175507    -1.6813311484     1.5374381000
H     -6.1297486920    -2.2032053328     0.2980881796
H      4.2270118255    -4.1575321808     0.9042187716
H      4.3472504467     0.7627034680     1.9433523450
H      2.2147947686    -2.4976673281     2.1874168687
H    -10.6591931387    -0.0818376967    -1.2775890482
H      6.2134842250    -4.1168890807    -0.5007772971
H      4.6354828595    -2.5041948886     2.6618713829
H      1.4922023176    -0.2116503112     2.6294919410
C    -11.1932407253    -2.1891804741    -1.3106375588
C      8.0850942764    -0.5973121177    -1.6659735939
C    -10.1428418861    -1.0586701452    -1.3307903668
C     -9.1976417440    -1.1241204353    -0.1305896408
C      4.5758485989    -3.1594862252     0.5816290965
C      2.8264574083    -1.6844036966     1.7526472887
C      3.2515579922     0.8672667581     1.9528806574
C      2.5809739674    -0.3901365702     2.5512573101
C      4.3035590924    -2.1132465725     1.6810784097
C      7.7270831449    -1.9641212209    -1.0784266531
C      6.0557541847    -3.2697671836     0.1899833186
N      2.8291478198     1.1558529735     0.5772339264
N      6.5193060675    -2.0396174720    -0.4664208080
O      8.5074938614    -2.9380900127    -1.1319046667
O     -9.6164371736    -1.0132047219     1.0367623812
H      5.9064461510    -1.2139467155    -0.4591301582
H      2.4475220127    -1.5399194470     0.7228227073
H      3.0026786057     1.7449013333     2.5753073599
H      3.9916710669    -2.9047910741    -0.3241738569
H      6.6801360086    -3.4727345925     1.0827093609
H      2.9518233731    -0.5000675489     3.5886070460
H      4.9184136776    -1.2192287682     1.4767253212
H     -9.5792527187    -1.0791256984    -2.2806496652
H      1.9120587709     1.6149023890     0.4689421581
C      8.8097776829     0.3281131809    -0.6544387280
H      7.1689515290    -0.0929623113    -2.0203732082
H      8.7369555896    -0.7788835022    -2.5373224988
H     -7.6139055351    -1.3875318996    -1.4039369860
C    -12.2131006265    -2.0557178761    -2.4505602745
H    -11.7095660615    -2.1734828042    -0.3345890259
H    -10.6787686112    -3.1660875226    -1.3803192020
H    -12.9536611810    -2.8732912706    -2.4199609969
H    -11.7194419502    -2.0883775796    -3.4381641663
H    -12.7630413307    -1.1005465817    -2.3820663611
C     10.1812492368    -0.1865421100    -0.1944305253
H      8.1535877894     0.4908413901     0.2202723957
H      8.9296079978     1.3168788509    -1.1339931999
H     10.8591884779    -0.3311436245    -1.0542113404
H     10.0992361288    -1.1543315034     0.3282979657
H     10.6596606994     0.5305278891     0.4950089257
