84
nylon66 config_16590 from config_16590.mcos (coord_rad bohr -> angstrom)
C      3.4895852900     2.0601935688    -0.4331066821
C      2.2765690930     1.7891942336    -1.3248634695
C      1.1148637923     1.1436122159    -0.5416334252
H      2.5520822697     1.1587467353    -2.1886402390
H      1.9487410170     2.7672475970    -1.7237111530
C     -0.1492365628     0.9859376059    -1.4014151945
H      0.8898694121     1.7678800613     0.3418556209
H      1.4338577240     0.1541063488    -0.1610418917
C     -1.3111478496     0.3421901448    -0.6170382209
H      0.0788610039     0.3690756453    -2.2920284798
H     -0.4736661321     1.9747047285    -1.7726748960
C     -2.6039895446     0.3023814801    -1.4335375979
H     -1.5219092871     0.9471860448     0.2844831102
H     -1.0268729083    -0.6682914375    -0.2741722227
O      3.4194667963     2.8228675529     0.5484767843
O     -3.1497576548     1.3449072180    -1.8397924065
N     -3.0981734662    -0.9381394956    -1.6910095435
C     -4.3336924528    -1.1838916860    -2.4372643468
H     -2.6044056625    -1.7428916430    -1.3113547054
C     -5.5233114041    -1.5464200898    -1.5277558620
H     -4.1479133520    -1.9993898228    -3.1596559605
H     -4.5535776736    -0.2670238817    -3.0084343722
C     -6.7972691216    -1.8264038142    -2.3447562539
H     -5.6890270898    -0.7190094673    -0.8141766713
H     -5.2647701903    -2.4389302645    -0.9259756984
C     -8.0006566995    -2.2932570895    -1.4990081726
H     -6.5730382213    -2.6041808717    -3.1000793356
H     -7.0783959242    -0.9179639434    -2.9127547581
C     -8.5509785654    -1.2236741788    -0.5388892976
H     -7.7139695205    -3.1943220316    -0.9217487487
H     -8.8117607959    -2.6110124566    -2.1820551924
C     -9.7980890662    -1.7249465166     0.2145823361
H     -8.8140639731    -0.3105838587    -1.1055682244
H     -7.7810553748    -0.9301026202     0.1981889279
N    -10.3353241787    -0.7388835616     1.1545319318
H     -9.5561440680    -2.6429605920     0.7801160985
H    -10.6021044933    -1.9677248384    -0.4994775846
H     10.9880313807     2.5423310043     0.1526501872
H      5.6593047132     1.8890127467     0.9624695286
H      8.7394340508     3.5652137235    -0.4078917964
H    -11.0581077109     1.0173339667     2.8174522335
H     12.4169428619     0.7754334171     0.9540028097
H      9.2844471201     1.1963958232    -1.1205204968
H      6.3542424303     3.5234733483    -0.7996039187
C    -13.2098648337     0.7984419671     2.5007224314
C     10.2917373540    -2.9698187499     1.8550206147
C    -11.7793062321     1.0547939554     1.9815642810
C    -11.3839083391     0.0797832065     0.8719995365
C     10.4686156737     1.6902503212     0.6315348002
C      8.1979554954     2.6960232554     0.0136807104
C      5.8981650897     1.5461018459    -0.0577570194
C      6.8592174299     2.5422319957    -0.7364309873
C      9.1138654763     1.4600759429    -0.0581092630
C     10.6513750829    -1.8848632601     0.8327092696
C     11.4196458626     0.4801738105     0.5786095632
N      4.6294536296     1.4038072591    -0.7764905994
N     10.9454513671    -0.6654947980     1.3604407027
O     10.6979059607    -2.1247032667    -0.3874321028
O    -12.0009718150     0.0361198482    -0.2086194960
H     10.8946856592    -0.5570326349     2.3717361537
H      7.9988013218     2.9474990464     1.0742447978
H      6.3583751919     0.5462533986     0.0176018498
H     10.3078444801     1.9824683323     1.6880535105
H     11.5406452275     0.1255341984    -0.4578483964
H      7.0480422878     2.2175559966    -1.7778307996
H      8.6174793557     0.5862543871     0.4039133510
H    -11.7262325955     2.0711201447     1.5482097166
H      4.6151076794     0.8107425430    -1.6030095343
C      9.0752964112    -3.8160033306     1.4353413477
H     10.1254691605    -2.5251557935     2.8525420224
H     11.1836551977    -3.6193808296     1.9382045704
H     -9.8665876166    -0.6314039208     2.0512432354
C    -13.6506492045     1.8453754680     3.5336899547
H    -13.2597930249    -0.2126198847     2.9469744784
H    -13.9021425967     0.7980406742     1.6403459072
H    -14.6743168805     1.6435676827     3.8931118081
H    -13.6401780793     2.8608321031     3.0998554163
H    -12.9821195429     1.8494518702     4.4129931611
C      7.7491535689    -3.0421367816     1.4793220825
H      9.0164207954    -4.6945667978     2.1032329527
H      9.2531259877    -4.2051166756     0.4174955318
H      7.7553937299    -2.1889342883     0.7775596003
H      7.5547159160    -2.6427144302     2.4904510668
H      6.8999045157    -3.6907783532     1.2046309433
