167
petg petg_r_33650 from petg_r_33650.mcos (coord_rad bohr -> angstrom)
C      9.3810402631    -5.6295863401    -2.0294972285
C      9.3484913060    -5.2712159809    -0.5758288172
C     10.4958251998    -4.7077526849     0.0079942347
C     10.5045513902    -4.3656699555     1.3564915194
C      9.3649905009    -4.5759955729     2.1512692928
C      9.4154533289    -4.1954370972     3.5986880997
O     10.4252473916    -3.8029140684     4.1684599674
O      8.2116459749    -4.3370146965     4.2098078123
C      8.2129027678    -5.1359545768     1.5678807714
C      8.2052722613    -5.4820249065     0.2179295628
O     10.3654069072    -5.4984122652    -2.7453146547
H     11.3814698538    -4.5450382468    -0.6132563758
H     11.3975767734    -3.9302886205     1.8145042981
H      7.3236595834    -5.3019952594     2.1812941313
H      7.3102513298    -5.9206648385    -0.2304223261
C      8.1549011601    -4.0184961589     5.6313487267
C      7.9366044976    -2.5387181670     5.8848181062
H      9.0929345531    -4.3277031579     6.1175011680
H      7.3160157738    -4.6141298597     6.0179395018
O      6.6191979008    -2.1843642560     5.3719125082
H      7.9712741093    -2.3460984983     6.9704076880
H      8.7000091028    -1.9189161701     5.3901965477
H      7.3413025737    -7.2988695719    -3.8912783546
C      8.1204864992    -6.5256889268    -3.8630197676
C      2.9012821960    -5.2395879935    -5.1544343170
C      1.6850485148    -4.6340262382    -4.8490350073
C      4.1129452138    -4.6942110299    -4.6990908629
C      1.6620362229    -3.4557714229    -4.0779847538
H      8.4854828276    -4.5294934345    -4.6533084422
O      6.4732178447    -4.7845026341    -4.4803239198
C      0.3749901225    -2.7651447666    -3.7332343807
C      4.0897205110    -3.5183651406    -3.9242335796
O      0.3198076000    -1.6988433251    -3.1313496948
C      5.3957922401    -5.3804673319    -5.0520399876
C      2.8734543155    -2.9101290852    -3.6236304890
H      2.9301124705    -6.1526388249    -5.7572634816
H      0.7485444862    -5.0681569287    -5.2070077457
O      8.1934016134    -6.1226872787    -2.4639532824
C      7.7782944245    -5.3599521246    -4.7806673180
O      5.4693599239    -6.3649026203    -5.7763491189
H      5.0255702877    -3.0851998600    -3.5633906732
H      2.8442800316    -1.9928480975    -3.0271194579
H      9.0862249976    -6.9524608318    -4.1767483412
H      7.7967054754    -5.7130098907    -5.8239119907
H     -0.2505952400     1.3610194233     0.8653464423
C     -0.6318794518     2.2296203947     1.4185368602
C      2.8741587807    -1.3093896863     3.8164279331
C      4.1331169118    -1.6133045142     4.3279383182
C      2.3556323359    -0.0071436220     3.9055004653
C      4.9008389198    -0.6070650599     4.9448739562
H     -0.9065051040     2.8769733743     3.4796701272
O      0.6677170522     1.5873983068     3.4235729510
C      6.2599257116    -0.8858848068     5.5103622492
C      3.1244791781     0.9996555347     4.5208337677
O      6.9703846476    -0.0417255232     6.0411019294
C      0.9973007901     0.2734884129     3.3410942606
C      4.3823448590     0.6950635381     5.0347627067
H      2.2686823042    -2.0845613015     3.3365377631
H      4.5268824813    -2.6295520101     4.2515736129
O      0.2630976315     3.3217019279     1.0565212299
C     -0.6451876204     1.9697506337     2.9188472711
O      0.2646968395    -0.5823524821     2.8618395422
H      2.7311447159     2.0161994972     4.5951177064
H      4.9873459120     1.4691196063     5.5172166905
H     -1.6568436513     2.4645010496     1.0902253549
H     -1.3726798028     1.1712193591     3.1340956204
H    -14.4745288433    -0.5140890427     1.6653391806
C    -14.4221949231    -1.2915864817     0.8876446393
C    -12.1301403261     2.3904987560    -1.6419567016
C    -11.2590460669     3.4123763466    -2.0098634017
C    -13.2573738244     2.6805433615    -0.8488093791
C    -11.4878887013     4.7349779441    -1.5962622994
H    -14.5216298022    -1.4871431252    -1.2712000179
O    -13.8311628155     0.3792586640    -0.8350422064
C    -10.5251309595     5.8005006079    -2.0135893611
C    -13.4853421903     4.0034470510    -0.4359725231
O     -9.5313530370     5.6026006913    -2.7002553786
C    -14.2210658224     1.6137662320    -0.4278421351
C    -12.6131443662     5.0254563641    -0.8018575467
H    -11.9435304780     1.3645458236    -1.9678452459
H    -10.3813532610     3.1988846405    -2.6278715113
O    -13.0835587829    -1.8678424452     0.8705496756
C    -14.7088579405    -0.7334707983    -0.4933895673
O    -15.2441102336     1.8290145892     0.2087126093
H    -14.3641384663     4.2182615797     0.1798553654
H    -12.7999242516     6.0510638136    -0.4740921612
H    -15.1580946272    -2.0788357168     1.1226638613
H    -15.7580068013    -0.4026028762    -0.5327142890
C      1.3067234180     7.9667645470     0.4611031025
C      0.4036575594     6.9736917074     0.8278771355
C      2.5823504935     7.6267065477    -0.0196437197
C      0.7553517385     5.6173383559     0.7218676485
O      4.7381395802     8.2612993703    -0.7756573826
C     -0.2427477273     4.5793603730     1.1313990101
C      2.9360530222     6.2689035804    -0.1287178381
O     -1.3854381965     4.8312222777     1.4916768288
C      3.5271001670     8.7274716706    -0.4043637696
C      2.0324090932     5.2736440323     0.2395044538
H      1.0362272316     9.0238064071     0.5426546675
H     -0.5901425234     7.2359497974     1.2026958127
O      3.2318257149     9.9170777804    -0.3803691071
H      3.9261450811     5.9985233223    -0.5050159215
H      2.3115539892     4.2204547736     0.1534096242
C      7.0425633910     8.5535893953    -1.4834721754
C      8.0469917261     9.5651609202    -2.0784837273
C      9.3939217698     8.8950780808    -2.4111556019
H      8.2137123104    10.3823650311    -1.3477444268
H      7.6231662502    10.0320647359    -2.9865457331
C     10.0067133767     8.1769892742    -1.1894302017
H     10.1018937168     9.6518679339    -2.7984559618
H      9.2315646468     8.1630206415    -3.2278516158
C      8.9942692414     7.1895263731    -0.5727379846
C      7.6518544888     7.8668691105    -0.2445128763
H      9.4208774967     6.7396037555     0.3436149983
H      8.8266349748     6.3584824807    -1.2841386669
H      7.8045956527     8.6323821278     0.5437948582
H      6.9424681297     7.1269004226     0.1658715035
C     11.3550819725     7.5074985600    -1.5186614835
H     10.2410647116     8.9504511059    -0.4264390698
O     11.2668026760     6.4264969048    -2.4745164438
H     11.7756728655     7.0522625298    -0.6052339799
H     12.0717678713     8.2749811925    -1.8764555899
H     -1.9361063277    -1.7665704880    -3.9490802766
H     -2.6890656661    -5.0074709340    -0.2851715464
H     -1.8100121837    -5.3485897125    -2.5977152641
H     -1.8711925440    -2.9903301294    -1.7581031319
H     -2.6526846997    -3.2272485440    -4.7257328014
C     -2.0232339688    -2.8633492795    -3.8973647119
C     -2.5864527049    -3.3070902523    -2.5430628878
C     -2.7765771810    -4.8352170982    -2.4518687454
C     -3.3942642869    -5.2528792620    -1.1043740667
H     -3.8839513751    -2.6767330644    -0.1155053997
H     -3.7777830108    -1.4881352010    -2.3105300878
C     -3.9276619073    -2.5829156956    -2.2885022472
H     -3.5416414852    -6.3480672851    -1.0799050756
C     -4.5465561365    -3.0026557826    -0.9423525581
O     -0.7061998459    -3.4492293286    -4.1685826925
C     -4.7372634168    -4.5307785184    -0.8527256555
H     -3.4392431133    -5.1643317273    -3.2775163271
C     -9.4617002512    -4.2138204172     2.9675308797
C    -10.7471510241    -3.6838792515     3.0255937794
C     -8.6858849661    -4.0746216558     1.8044418017
C    -11.2873325949    -3.0053506378     1.9200836138
C     -9.2247067454    -3.3939675160     0.6966855703
C    -10.5131760022    -2.8655461648     0.7531045135
O     -6.6652915934    -4.4249450826     0.6159591916
C    -12.6753979403    -2.4520761757     2.0228895645
O    -13.3710202124    -2.5187936126     3.0283197996
C     -7.3046251659    -4.6609826082     1.7813101626
H    -11.3528628984    -3.7892970629     3.9305806064
H     -9.0386346248    -4.7446577390     3.8256361227
H    -10.9274734557    -2.3386319199    -0.1102171961
H     -8.6258380097    -3.2823467716    -0.2109425438
O     -6.8129636741    -5.2845996161     2.7151639120
H     -4.6339338724    -2.8249523744    -3.1080848984
H     -5.5132823008    -2.4900487774    -0.7957621152
O    -10.8625781042     7.0308950397    -1.5512089360
H    -10.1794417622     7.6593491305    -1.8707175149
H     11.0324405743     6.8144599448    -3.3362798484
C     -5.3099944706    -4.9709666514     0.4927184768
H     -5.4494541636    -4.8470106013    -1.6417911131
H     -5.3734320421    -6.0702190291     0.5671127150
H     -4.7030116199    -4.5968688286     1.3360969490
C      5.7288659283     9.2672341483    -1.1730552468
H      6.8349885726     7.7815220646    -2.2522775831
H      5.8438970748     9.9900908228    -0.3459784577
H      5.3398400314     9.8037829223    -2.0554966660
