167
petg petg_r_92400 from petg_r_92400.mcos (coord_rad bohr -> angstrom)
C      1.9882088437     6.7821565396     0.5141147003
C      2.3905601187     5.3521556055     0.3199040890
C      3.3198633254     4.7828823763     1.2057598044
C      3.7294246959     3.4600680871     1.0585194058
C      3.2020306215     2.6758803700     0.0144744786
C      3.6105203129     1.2488465205    -0.1827513981
O      3.0913364517     0.4935526865    -0.9939734242
O      4.6257994030     0.8860153539     0.6424763547
C      2.2682003087     3.2432919405    -0.8679398214
C      1.8646866673     4.5682903458    -0.7248449067
O      2.3809534019     7.4882440855     1.4340392246
H      3.7190956129     5.4008684364     2.0161260920
H      4.4555199853     3.0283750477     1.7513821717
H      1.8625238268     2.6238164860    -1.6738103381
H      1.1411508631     5.0006695716    -1.4199863404
C      5.0915578901    -0.4911584723     0.5429716548
C      6.1105085259    -0.6759241681    -0.5704019631
H      4.2367582486    -1.1618128373     0.3617238227
H      5.5362936752    -0.7050529587     1.5254661579
O      7.3390925406     0.0423034945    -0.2539764056
H      6.3855481108    -1.7405981260    -0.6277394259
H      5.7244711675    -0.3336368493    -1.5405689821
H      1.5770045062     9.2658166581    -0.3365817844
C      0.6987699544     8.5987739567    -0.3339141985
C     -4.8305774782     8.1650008945    -0.2328358184
C     -5.9817043150     7.3857040366    -0.2932994443
C     -3.6744369456     7.7828803624    -0.9343798274
C     -6.0023827405     6.2037246217    -1.0522020529
H     -0.4128632182     9.9887371148    -1.5272460165
O     -1.4088129216     8.1385058114    -1.5406484227
C     -7.2634428512     5.3912849362    -1.0942394359
C     -3.6929483226     6.5990820377    -1.6960180740
O     -8.3183717170     5.7534939635    -0.5861872262
C     -2.4567946804     8.6491809828    -0.8441019460
C     -4.8448146846     5.8163262653    -1.7530414353
H     -4.8117544752     9.0851297570     0.3586815228
H     -6.8844839944     7.6830405624     0.2485413721
O      1.1412739729     7.2148162183    -0.4501504796
C     -0.1745989563     8.9140173463    -1.5333922045
O     -2.4087058757     9.6999525053    -0.2178038668
H     -2.7973027751     6.2968364219    -2.2447744066
H     -4.8554515637     4.8976684013    -2.3451772637
H      0.1575879150     8.7297487730     0.6158204805
H      0.3312402101     8.6454223002    -2.4715294015
H     15.5435029885     3.5398329297    -0.0164246136
C     15.7480323056     3.2456247016     1.0215631794
C     10.9186332263     1.8322296654     0.8365921059
C      9.7235523957     1.2187772817     0.4654525842
C     11.3537079267     2.9971981737     0.1772893064
C      8.9448317654     1.7524049285    -0.5784527001
H     14.7345400994     3.1966521684     2.9485816872
O     13.3295729993     3.0034959189     1.4885248368
C      7.6562376476     1.1219953758    -1.0131070970
C     10.5724989003     3.5308059598    -0.8615877950
O      6.9780216639     1.5336645737    -1.9446952013
C     12.6305262444     3.6867824063     0.5470727266
C      9.3834118913     2.9137479533    -1.2370800840
H     11.5224220275     1.4118747798     1.6448250039
H      9.3864792561     0.3169331382     0.9827670588
O     15.9865298322     1.8091275522     0.9598749045
C     14.5832594752     3.5969767475     1.9372755148
O     13.0032524883     4.7460549475     0.0595129197
H     10.9142156419     4.4369865276    -1.3703826958
H      8.7752590097     3.3246819072    -2.0482872748
H     16.6526040157     3.7572636373     1.3867664651
H     14.4818385187     4.6931431766     1.9774276477
H    -17.4836807566    -6.4183746973     2.1344111629
C    -16.9441793377    -6.7407194365     1.2338946565
C    -20.6863245086    -2.6670300239     0.9334156497
C    -20.9933126865    -1.3194832857     0.7754675213
C    -19.5611748658    -3.2202158993     0.2985193764
C    -20.1809178938    -0.4955720218    -0.0218722333
H    -17.1639733898    -6.6675024552    -0.9313673986
O    -18.1284688510    -5.0584588255    -0.1400547614
C    -20.5439302675     0.9477989626    -0.1679389670
C    -18.7455621517    -2.3960848865    -0.4994593659
O    -21.5176196221     1.4716762023     0.3570526575
C    -19.2639177470    -4.6749674843     0.4965098320
C    -19.0536752855    -1.0462511726    -0.6589630350
H    -21.3161455747    -3.3128118241     1.5523414239
H    -21.8682997074    -0.8853321484     1.2681411117
O    -15.6940720000    -5.9917858148     1.2623521713
C    -17.7516011444    -6.4621967358    -0.0267070788
O    -19.9650227380    -5.4336094547     1.1531817695
H    -17.8688426980    -2.8205326131    -0.9949706590
H    -18.4189858707    -0.4094480607    -1.2808851715
H    -16.7322269679    -7.8202937872     1.2883711525
H    -18.6566749730    -7.0897842284    -0.0149450159
C     17.9069506918    -2.2752350661     2.5889044221
C     17.7100594729    -0.9035609038     2.7159643087
C     17.3641961307    -2.9741558484     1.4976152001
C     16.9663857728    -0.1989037322     1.7541647576
O     16.9810013586    -5.0002974874     0.3285970696
C     16.7750879805     1.2757200653     1.9278133140
C     16.6197673086    -2.2704075681     0.5326557007
O     17.2731804136     1.9298781872     2.8349347864
C     17.6005621079    -4.4527468372     1.3953703825
C     16.4213553132    -0.8967396002     0.6597895021
H     18.4860273934    -2.8266649604     3.3357402283
H     18.1319428251    -0.3569103127     3.5645596758
O     18.2792185480    -5.0906970998     2.1924358213
H     16.1970916860    -2.8088761661    -0.3195753645
H     15.8423638624    -0.3544652891    -0.0920190042
C     16.3372187150    -6.8757958216    -1.0711778278
C     16.6646053877    -8.3459160561    -1.4179156031
C     15.8479488370    -8.8401471264    -2.6280442796
H     16.4406212778    -8.9847816486    -0.5401451440
H     17.7455923156    -8.4551680560    -1.6227044119
C     14.3301367003    -8.6600486591    -2.4108772597
H     16.0793889388    -9.9030151327    -2.8258035830
H     16.1553199568    -8.2753242251    -3.5312513056
C     14.0135129236    -7.1904491314    -2.0663806328
C     14.8199351822    -6.7056615262    -0.8488621683
H     12.9319927252    -7.0712134209    -1.8824363045
H     14.2585217143    -6.5582451651    -2.9443693241
H     14.5235860659    -7.2899943557     0.0457963897
H     14.5845169439    -5.6491026313    -0.6303966059
C     13.5572929007    -9.1565622812    -3.6354837292
H     14.0268684648    -9.2943200147    -1.5515997952
O     12.1432625913    -9.1538854498    -3.3367202767
H     13.8928527587   -10.1819834198    -3.8949301110
H     13.7710687692    -8.4965732240    -4.5027041101
H     -9.1717042510     3.9768031311    -1.9590524820
H     -7.3550759773     1.0242632257     1.5738158151
H     -6.2485391749     2.0311133333    -0.4255769776
H     -8.4579923762     3.0032166707     0.2446560856
H     -8.1044264138     2.7957380043    -2.8056155316
C     -8.2716175396     3.3485950472    -1.8668978627
C     -8.3890669783     2.3908758497    -0.6764334360
C     -7.1761679000     1.4458251614    -0.5528330528
C     -7.3399923331     0.4604151954     0.6194174704
H     -9.9684533352     1.1575579687     1.3123409628
H    -10.5644392996     2.2542795498    -0.8515411812
C     -9.6945471245     1.5739748213    -0.8052278756
H     -6.4702008289    -0.2200130017     0.6653903339
C     -9.8585501654     0.5888730170     0.3670895873
O     -7.1000965586     4.2250139883    -1.7574651203
C     -8.6457247288    -0.3562418013     0.4910990697
H     -7.0663399934     0.8773318075    -1.4982112960
C    -11.0732142166    -5.3529976718     0.1393810737
C    -12.2336899757    -6.1176301248     0.0695964763
C    -11.0536609369    -4.1527972548     0.8692346700
C    -13.4015581869    -5.7001721088     0.7303565147
C    -12.2223249212    -3.7320943386     1.5314757103
C    -13.3845297062    -4.4983646167     1.4632031010
O     -9.9407118497    -2.1829651589     1.5741833016
C    -14.6305676890    -6.5488854096     0.6282722470
O    -14.6754238038    -7.6231922659     0.0428323308
C     -9.7837775696    -3.3545768407     0.9188299999
H    -12.2514321083    -7.0521168022    -0.4989906162
H    -10.1619701553    -5.6759203504    -0.3728929274
H    -14.2895138670    -4.1690225424     1.9800752830
H    -12.2125354235    -2.7993872869     2.1012091172
O     -8.7283278018    -3.7309719475     0.4223529201
H     -9.6791515894     1.0100275542    -1.7595793379
H    -10.7861173916     0.0035533326     0.2398591915
O    -19.6754638370     1.6360474376    -0.9515778756
H    -19.9911249332     2.5649089351    -0.9897349253
H     11.6736156858    -9.4159855216    -4.1484678088
C     -8.7643167443    -1.3131390692     1.6821641068
H     -8.5772159409    -0.9691854407    -0.4297035079
H     -7.8672230019    -1.9457740148     1.7726162475
H     -8.9269551520    -0.7591553609     2.6210135172
C     17.1614511534    -6.4434441082     0.1393385844
H     16.6420724813    -6.2436644683    -1.9299767580
H     16.8356999120    -6.9602601297     1.0594732102
H     18.2373967539    -6.6391718534    -0.0099583025
