44
pvdf conformer_014_frame42 from conformer_014_frame42.cosmo (coord_rad bohr -> angstrom)
C      5.8405593383     2.0354284698    -0.1845328145
F      6.0286393470     2.3522164219     1.1489159768
F      5.3734871555     3.1879402101    -0.8001912028
C      4.7861247148     0.9445811934    -0.3495220455
C      5.2265162956    -0.4415685840     0.1188973729
F      6.4591059040    -0.7395144137    -0.4752360161
F      5.4806607267    -0.4196945678     1.4834816014
C      4.3149493483    -1.6354010082    -0.2011977307
C      2.8411730446    -1.5779081244     0.2463033111
F      2.4402704300    -2.8985644699     0.4411787352
F      2.7430468037    -0.9740098583     1.4916163334
C      1.8833528887    -0.9238161117    -0.7613186279
C      0.4477945210    -0.6334532194    -0.2926895910
F     -0.0859781180    -1.7503663701     0.3448535090
F      0.4644688302     0.3680544097     0.6678357955
C     -0.4530633765    -0.2250737071    -1.4669925409
C     -1.9031784449     0.1912695355    -1.1684048600
F     -2.4439921704     0.5644291879    -2.3980682089
F     -1.9033383354     1.3567075113    -0.4062076027
C     -2.7918653526    -0.8678685337    -0.5103395491
C     -4.2883630465    -0.5598912868    -0.3341991363
F     -4.8375026775    -1.7094378533     0.2369432775
F     -4.8919777216    -0.4590148702    -1.5851373061
C     -4.6406018845     0.6624561068     0.5164379318
C     -6.1140923449     0.8671875127     0.8991742499
F     -6.4909213439    -0.1096894194     1.8243080960
F     -6.1452569011     2.0693058232     1.6259245093
C     -7.1563855466     0.9416895778    -0.1934960486
H      6.8231596834     1.7929784834    -0.6181797947
H      4.5505631287     0.8855740595    -1.4245330071
H      3.8800267063     1.2515407594     0.1978053284
H      4.3523658002    -1.8174093487    -1.2868565490
H      4.7707894823    -2.5045814342     0.2984965024
H      1.8425261233    -1.5914029117    -1.6367791971
H      2.3055184654     0.0321413201    -1.1051804483
H     -0.4865586589    -1.0666634954    -2.1758261614
H      0.0151013228     0.6310155956    -1.9808213606
H     -2.7302190296    -1.7886025117    -1.1131295294
H     -2.3782964796    -1.0941312297     0.4833018843
H     -4.3071553310     1.5587021630    -0.0284590684
H     -4.0655462669     0.6115223894     1.4550589670
H     -8.1325925763     1.1631346927     0.2646929730
H     -7.2143457684    -0.0136709994    -0.7331531976
H     -6.8992648928     1.7388058719    -0.9071143455
