44
pvdf conformer_026_frame92 from conformer_026_frame92.cosmo (coord_rad bohr -> angstrom)
C     -7.3757569313     0.5301632185     0.4500646927
F     -8.3470308837    -0.4258414116     0.7174527202
F     -7.6915967632     1.0724103238    -0.7845517479
C     -6.0189885078    -0.1627008282     0.4184129823
C     -4.8245334570     0.7840433872     0.2921122037
F     -4.8664543779     1.4472951177    -0.9262101240
F     -4.9567047824     1.7914394493     1.2581711506
C     -3.4248468338     0.1893292947     0.5080304780
C     -2.9656035364    -0.9269874674    -0.4328603833
F     -3.8515329897    -2.0080065513    -0.3408302526
F     -3.0452583876    -0.5106382253    -1.7529849903
C     -1.5729682027    -1.5200505003    -0.1642922671
C     -0.3686436672    -0.5683288279    -0.1611725754
F     -0.4082573379     0.2599326948    -1.2747480898
F     -0.4571383791     0.2859022449     0.9360410909
C      0.9600836091    -1.3401354283    -0.1350803759
C      2.2426071681    -0.5391366210     0.1428357646
F      2.2353510825    -0.0828350712     1.4535752517
F      2.2764266529     0.6079740735    -0.6473035052
C      3.4986882956    -1.3823858084    -0.1180884035
C      4.8682672248    -0.7850886630     0.2467940516
F      5.8016005557    -1.7722928778    -0.0731384740
F      4.9544757468    -0.6441855777     1.6292477792
C      5.2447531776     0.5291519566    -0.4398836915
C      6.6712135458     1.0623686421    -0.2374398057
F      7.5765537092     0.2270649148    -0.8963123221
F      6.7200273838     2.2693103150    -0.9553271500
C      7.1689309235     1.3216178197     1.1666712743
H     -7.4708107316     1.3278209270     1.2032745381
H     -6.0050071655    -0.8872826460    -0.4098460359
H     -5.9128775055    -0.7212274368     1.3622562899
H     -2.7122965792     1.0250190791     0.4298833567
H     -3.3757476009    -0.1939219552     1.5395133867
H     -1.4135611558    -2.2900882993    -0.9375646173
H     -1.6009891957    -2.0248217997     0.8139511349
H      1.0627739611    -1.8401251160    -1.1112869708
H      0.8954140936    -2.1258854380     0.6343568217
H      3.4106150704    -2.3242497735     0.4489638313
H      3.5171916275    -1.6337936871    -1.1896523769
H      4.5451015748     1.3040528561    -0.0914601674
H      5.0930896124     0.4085702849    -1.5246782228
H      7.2245444087     0.3818810173     1.7332449261
H      6.4880716168     2.0117773021     1.6872428224
H      8.1711200547     1.7733488707     1.1074455840
