44
pvdf conformer_004_frame6 from conformer_004_frame6.cosmo (coord_rad bohr -> angstrom)
C      6.6586087377    -1.6591131276     0.0812433369
F      7.8145888792    -1.3739514887    -0.6334740953
F      6.1944348872    -2.8734133710    -0.3961909017
C      5.6515861384    -0.5440728792    -0.1738050796
C      4.3817618519    -0.6290780406     0.6743296278
F      3.6745017820    -1.7821487086     0.3639685767
F      4.7582045698    -0.7841361442     2.0155979967
C      3.4331749789     0.5785236979     0.6512115396
C      2.8230422677     0.9873264466    -0.6915183403
F      3.8457120591     1.3272684142    -1.5805512004
F      2.1768847926    -0.0946562219    -1.2816222359
C      1.8802114660     2.1991762449    -0.6659272843
C      0.5436985585     2.0982178650     0.0848784670
F      0.7936445467     1.8517340843     1.4336409518
F     -0.0072666900     3.3750523216     0.0425583709
C     -0.4582165993     1.0745383844    -0.4627450335
C     -1.8852813604     1.0898566984     0.1114825847
F     -2.5215632851     2.2717917945    -0.2440006954
F     -1.8464156673     1.0908113938     1.5000789855
C     -2.6942430980    -0.1230776438    -0.3782327558
C     -4.2060150516    -0.1359361013    -0.0963863119
F     -4.8241239968     0.8699895727    -0.8376527926
F     -4.4560123666     0.1791285074     1.2320375000
C     -4.8334886282    -1.4916186933    -0.4475984838
C     -6.3272988910    -1.6909322692    -0.1504175247
F     -6.6199152218    -2.9966534054    -0.5788881398
F     -6.5205592665    -1.7244999341     1.2326237849
C     -7.3354322617    -0.7487495564    -0.7684775721
H      6.9394132365    -1.7964658381     1.1371006547
H      5.3846439383    -0.5391338886    -1.2416130900
H      6.1522533992     0.4100701800     0.0571293691
H      2.6186780061     0.3532902199     1.3568532874
H      3.9822878057     1.4484431230     1.0448526876
H      1.6612034765     2.4524830184    -1.7150698087
H      2.4276360712     3.0480659698    -0.2253133739
H     -0.0323127394     0.0705638022    -0.3098885165
H     -0.5408703327     1.2313051165    -1.5498263937
H     -2.5667026331    -0.2120573514    -1.4699969257
H     -2.2485378277    -1.0185166662     0.0821040602
H     -4.2881916825    -2.2780515273     0.0980345198
H     -4.6816208617    -1.6621114962    -1.5259973146
H     -7.2201375358    -0.7383266620    -1.8626910020
H     -7.1920048168     0.2710164468    -0.3857537770
H     -8.3474213583    -1.0977919340    -0.5112823458
