44
pvdf conformer_009_frame26 from conformer_009_frame26.cosmo (coord_rad bohr -> angstrom)
C     -6.6299381715     1.6810783842     0.1585268819
F     -7.6401333006     0.8036829077    -0.1982343540
F     -6.7940261889     2.8093988401    -0.6343410567
C     -5.2561017916     1.0886152190    -0.1312866637
C     -4.8522758310    -0.0621463960     0.7905384380
F     -5.0227980472     0.3540182530     2.1181880789
F     -5.7269169953    -1.1289656011     0.6359688395
C     -3.4036029575    -0.5646792202     0.6983194072
C     -2.9062098271    -1.0645379695    -0.6610322500
F     -3.8006669241    -2.0036137310    -1.1730328773
F     -2.9141651057    -0.0196791570    -1.5813295402
C     -1.5320138177    -1.7542902273    -0.6798961544
C     -0.3006264867    -0.9449460665    -0.2502002416
F     -0.1910624654     0.2029479822    -1.0294125233
F     -0.4604518535    -0.4876008570     1.0543210968
C      0.9825934299    -1.7796201573    -0.3610735142
C      2.3065722675    -1.1588693396     0.1162335041
F      3.2638622442    -2.1665546420    -0.0601727729
F      2.2554704511    -0.9471395626     1.4847609817
C      2.7624126524     0.1107661858    -0.6072863293
C      4.0860448775     0.7667367489    -0.1775596712
F      3.9756955545     1.2226816737     1.1284857793
F      4.1839981967     1.9260340533    -0.9583173849
C      5.3575150985    -0.0673866642    -0.3496519591
C      6.6953552783     0.5711060957     0.0531615136
F      6.7291692265     0.7325132975     1.4405417137
F      7.6662858698    -0.4101155305    -0.2113120649
C      7.1327411011     1.8604738247    -0.6052198161
H     -6.7942290030     1.9774838127     1.2063172706
H     -4.5170794112     1.8972187405    -0.0119884613
H     -5.2252726138     0.7511983805    -1.1785943916
H     -2.7419247430     0.2509784271     1.0260272387
H     -3.3076492691    -1.3855807395     1.4274062815
H     -1.3715909060    -2.0991171812    -1.7147974118
H     -1.5957443937    -2.6430952067    -0.0338700104
H      1.1051646687    -2.0691932363    -1.4165287128
H      0.8454687844    -2.7018084951     0.2274100177
H      2.8310532209    -0.1191366022    -1.6823707066
H      1.9832078300     0.8783106781    -0.4822507046
H      5.4263283041    -0.3516580885    -1.4120379617
H      5.2519366461    -0.9927686279     0.2362412830
H      7.1422348440     1.7409694262    -1.6989804904
H      8.1476230747     2.1063874185    -0.2564461025
H      6.4473320760     2.6775374512    -0.3420012503
