44
pvdf conformer_023_frame82 from conformer_023_frame82.cosmo (coord_rad bohr -> angstrom)
C     -7.7847420736     0.4804530222    -0.2858556934
F     -7.9777730297     1.2764093593     0.8306356406
F     -8.9096716139    -0.3266560741    -0.3911740665
C     -6.5637491773    -0.4159644907    -0.1208725061
C     -5.2210272759     0.3224753317    -0.1441150828
F     -5.1931645333     1.1631444057    -1.2578474924
F     -5.1273290558     1.1639607948     0.9554921370
C     -4.0274045288    -0.6421735521    -0.1905405590
C     -2.6212780837    -0.0506163915    -0.0004370128
F     -2.4583705923     1.0717680483    -0.8023093829
F     -2.4773708394     0.3994489944     1.3056769738
C     -1.5314581620    -1.0835374171    -0.3325210602
C     -0.0850903570    -0.7412899497     0.0585858359
F      0.2277654058     0.5586921415    -0.3351685864
F      0.0416137859    -0.7460338316     1.4410084975
C      0.9158319646    -1.7221557257    -0.5688556747
C      2.3873860604    -1.6447569910    -0.1263884346
F      3.0465598456    -2.6316429126    -0.8605930263
F      2.4887851240    -2.0491042514     1.1977095091
C      3.0816328205    -0.2927313182    -0.3267884018
C      4.5894377073    -0.2006115731    -0.0406978510
F      5.2921216035    -1.0396795535    -0.8958591898
F      4.8632999288    -0.6688705278     1.2423179069
C      5.0969204004     1.2413036404    -0.1793041836
C      6.6101046031     1.4822725445    -0.0716944861
F      7.2415960804     0.9527243854    -1.1997007240
F      6.7759299819     2.8718685978    -0.1953933376
C      7.3434566953     1.0213926130     1.1676073201
H     -7.7562130676     1.1380917838    -1.1685792125
H     -6.5744810659    -1.1383918469    -0.9535818863
H     -6.6533508118    -0.9759793523     0.8236330988
H     -4.1689509142    -1.4059132261     0.5910125330
H     -4.0632279773    -1.1553546639    -1.1655254714
H     -1.5700267569    -1.2593377021    -1.4195233610
H     -1.7835377183    -2.0327897041     0.1665050878
H      0.8841153739    -1.5818192311    -1.6603575216
H      0.5824622689    -2.7504567895    -0.3507049425
H      2.9241822236     0.0170768095    -1.3720429963
H      2.5694597170     0.4440516461     0.3114883967
H      4.6048589367     1.8422770819     0.6019516898
H      4.7769323837     1.6338177631    -1.1585133959
H      7.2995563452    -0.0730385489     1.2538682699
H      6.8877878052     1.4681013808     2.0639811609
H      8.3943808739     1.3410399573     1.0945015609
