44
pvdf conformer_019_frame67 from conformer_019_frame67.cosmo (coord_rad bohr -> angstrom)
C      7.2386842401     0.6107146691    -0.8892522390
F      7.3502492034    -0.1809228387    -2.0195263311
F      8.5293992059     0.8002162071    -0.4148242584
C      6.4256851208    -0.0867233343     0.1951148120
C      4.9284734529    -0.2050666999    -0.1058779346
F      4.4358467023     1.0645142171    -0.4308504076
F      4.7311243893    -0.9726109489    -1.2438680179
C      4.1388234717    -0.7845474315     1.0734467558
C      2.6289952770    -1.0171524670     0.8990479314
F      2.4229618922    -1.9998276052    -0.0599704799
F      2.1985344188    -1.5810234831     2.1004384013
C      1.7849716237     0.2209405544     0.5706734343
C      0.2579208649     0.0884154526     0.6883798497
F     -0.1784081316    -1.0884543668     0.0826307198
F     -0.1011884718    -0.0333569245     2.0245460393
C     -0.4624241501     1.2857689093     0.0525458545
C     -1.9791086033     1.4191367846     0.2714119693
F     -2.3591914716     2.5593451113    -0.4370247620
F     -2.2221066916     1.7225168079     1.6048448872
C     -2.8326867835     0.2214612858    -0.1619609296
C     -4.3605721154     0.3944680179    -0.1766056085
F     -4.7224418485     1.3144561336    -1.1535471090
F     -4.7974453309     0.9444547851     1.0261178614
C     -5.0752058609    -0.9418236785    -0.4171873067
C     -6.5926346262    -0.9085741397    -0.6521301792
F     -6.8511473098    -0.3505407598    -1.9065720062
F     -6.9806276546    -2.2528065126    -0.7784800209
C     -7.4822754917    -0.2472479274     0.3760131299
H      6.8448867367     1.5910248978    -1.2004203816
H      6.5446621612     0.4985136880     1.1215144201
H      6.8417700238    -1.0924298007     0.3653904895
H      4.5784944071    -1.7623551910     1.3299793918
H      4.2784800928    -0.1153546970     1.9368911664
H      2.0341980234     0.5287708361    -0.4567156019
H      2.0912112337     1.0394994459     1.2402618741
H     -0.2793109532     1.2490549634    -1.0324463483
H     -0.0112412281     2.2143663349     0.4401219158
H     -2.5272768061    -0.0689929731    -1.1792975516
H     -2.5852326101    -0.6196287776     0.5045037201
H     -4.8848456338    -1.5806670905     0.4595721379
H     -4.6235621027    -1.4311375299    -1.2958702259
H     -7.3270304779    -0.7084251604     1.3628187383
H     -8.5319061810    -0.3801007371     0.0718584304
H     -7.2552053197     0.8256034162     0.4448899449
