44
pvdf conformer_012_frame30 from conformer_012_frame30.cosmo (coord_rad bohr -> angstrom)
C      6.0318862258    -2.1336343316    -0.1935855766
F      6.6543887776    -2.9337094368    -1.1418634672
F      5.3015216453    -2.9851111594     0.6180407271
C      5.1238673371    -1.1472969352    -0.9180172153
C      4.4884809025    -0.0829973431    -0.0175345749
F      3.6274191722    -0.6907022465     0.8931219702
F      5.4842974795     0.5037246317     0.7604839696
C      3.7454840043     0.9896421514    -0.8230319760
C      2.9846836962     2.0767617898    -0.0520729281
F      3.8824468244     2.7820710895     0.7476561300
F      2.5547288681     2.9951817274    -1.0082503736
C      1.8063242308     1.7103761440     0.8617058390
C      0.5680715644     1.0703891426     0.2180656092
F      0.0003708826     1.9591461990    -0.6914330194
F      0.9292296612    -0.0405562762    -0.5365497993
C     -0.4674431192     0.6701822922     1.2782319727
C     -1.7683038785    -0.0102196715     0.8184898340
F     -2.4475639603    -0.3299857988     2.0017249181
F     -1.4743368682    -1.2304667504     0.2310589058
C     -2.6858179797     0.8149856993    -0.0877294134
C     -4.0081956363     0.1881167672    -0.5625304139
F     -3.7386926191    -0.9027860180    -1.3768518185
F     -4.5743947587     1.1448699030    -1.4155309091
C     -5.0227554986    -0.1879631487     0.5196931403
C     -6.3627645962    -0.7902391093     0.0711512783
F     -6.1399107621    -2.0587146181    -0.4704474056
F     -7.0728565086    -1.0340317835     1.2594088662
C     -7.2565497710    -0.0042711640    -0.8620628665
H      6.8160399998    -1.6681043389     0.4237265641
H      4.3299345477    -1.7051894261    -1.4403946900
H      5.7382837991    -0.6311522613    -1.6733320537
H      4.4877053544     1.5096807328    -1.4497601663
H      3.0334344901     0.4836451422    -1.4921583678
H      1.4850322798     2.6448500975     1.3492911106
H      2.1798831841     1.0313548351     1.6421724074
H     -0.7394917472     1.5750742534     1.8450691642
H      0.0158843626    -0.0314348425     1.9776991971
H     -2.9248867303     1.7522779402     0.4389713993
H     -2.1261630090     1.0797495791    -0.9979845609
H     -5.2412273912     0.7224358329     1.1006711733
H     -4.5545509687    -0.9137308705     1.2014649081
H     -6.7718524815     0.1250272956    -1.8393084259
H     -7.4686734157     0.9873075429    -0.4348257178
H     -8.2009876700    -0.5551503768    -0.9910564451
