44
pvdf conformer_008_frame22 from conformer_008_frame22.cosmo (coord_rad bohr -> angstrom)
C     -6.6299376547     1.6810790701     0.1585269274
F     -7.6401329795     0.8036840797    -0.1982349383
F     -6.7940251310     2.8093999348    -0.6343405380
C     -5.2561013790     1.0886156091    -0.1312865477
C     -4.8522759500    -0.0621464649     0.7905382118
F     -5.0227983638     0.3540177931     2.1181879519
F     -5.7269173589    -1.1289653870     0.6359680285
C     -3.4036031582    -0.5646795885     0.6983193938
C     -2.9062098433    -1.0645384781    -0.6610321599
F     -3.8006668123    -2.0036143257    -1.1730328150
F     -2.9141649951    -0.0196797943    -1.5813295974
C     -1.5320138072    -1.7542906921    -0.6798958581
C     -0.3006265247    -0.9449465224    -0.2501998325
F     -0.1910626725     0.2029477169    -1.0294118732
F     -0.4604518188    -0.4876016062     1.0543216026
C      0.9825934484    -1.7796204872    -0.3610733563
C      2.3065723183    -1.1588695865     0.1162334626
F      3.2638622835    -2.1665548966    -0.0601727487
F      2.2554705696    -0.9471396106     1.4847609158
C      2.7624126058     0.1107658671    -0.6072865706
C      4.0860446659     0.7667367281    -0.1775598516
F      3.9756950553     1.2226819038     1.1284854765
F      4.1839978390     1.9260338957    -0.9583177883
C      5.3575150588    -0.0673865173    -0.3496518132
C      6.6953551595     0.5711065108     0.0531615560
F      6.7291690751     0.7325140989     1.4405417066
F      7.6662858492    -0.4101151003    -0.2113117047
C      7.1327409511     1.8604740630    -0.6052201465
H     -6.7942286408     1.9774840814     1.2063174095
H     -4.5170787934     1.8972188712    -0.0119878372
H     -5.2252720493     0.7511991902    -1.1785944031
H     -2.7419248379     0.2509779070     1.0260273939
H     -3.3076497819    -1.3855811368     1.4274062706
H     -1.3715907605    -2.0991176550    -1.7147970965
H     -1.5957444628    -2.6430956659    -0.0338697127
H      1.1051645312    -2.0691935354    -1.4165285820
H      0.8454689793    -2.7018088502     0.2274101798
H      2.8310533740    -0.1191371211    -1.6823708911
H      1.9832076382     0.8783102565    -0.4822512101
H      5.4263283689    -0.3516582827    -1.4120377192
H      5.2519366989    -0.9927683108     0.2362417116
H      7.1422347620     1.7409693188    -1.6989807819
H      8.1476228968     2.1063878122    -0.2564464592
H      6.4473318755     2.6775377328    -0.3420018685
