44
pvdf conformer_022_frame81 from conformer_022_frame81.cosmo (coord_rad bohr -> angstrom)
C     -7.7798473798     0.4503642827     0.2410893906
F     -8.8896820733    -0.3730733066     0.3770285232
F     -8.0427724470     1.2858498775    -0.8309606339
C     -6.5610635644    -0.4256814065    -0.0239013342
C     -5.2233206943     0.3230865619    -0.0146546687
F     -5.2085118252     1.2648923614    -1.0357824942
F     -5.1291088578     1.0567506548     1.1669479690
C     -4.0228307342    -0.6236289439    -0.1581355753
C     -2.6141868792    -0.0319558390     0.0139146670
F     -2.4724557784     1.1142893273    -0.7569532328
F     -2.4380845570     0.3790059326     1.3288839891
C     -1.5311261749    -1.0517574188    -0.3770840580
C     -0.0759416431    -0.7200844073    -0.0115296731
F      0.2265522281     0.5925420116    -0.3698439532
F      0.0864463524    -0.7699945716     1.3666453269
C      0.9092180080    -1.6780589819    -0.6962081448
C      2.3850989583    -1.6378332744    -0.2630680183
F      3.0335652905    -2.5711515911    -1.0728819660
F      2.4952323341    -2.1386888749     1.0270377372
C      3.0837729726    -0.2778034771    -0.3719501508
C      4.5835789223    -0.2006759619    -0.0426495702
F      5.3063563922    -1.0371859540    -0.8828376077
F      4.8139037456    -0.6820577786     1.2443219101
C      5.1053292228     1.2387876303    -0.1517348850
C      6.6141654433     1.4703173028     0.0196000132
F      7.2893865836     0.9380063969    -1.0814675739
F      6.7931944976     2.8590065725    -0.0953717432
C      7.2922180614     1.0041894476     1.2880407966
H     -7.7086251494     1.0737348407     1.1459993619
H     -6.6903745545    -0.9360340219    -0.9924247318
H     -6.5305507102    -1.1898680439     0.7689850992
H     -4.1283416308    -1.4311801920     0.5837730832
H     -4.0888108567    -1.0813788874    -1.1590222047
H     -1.5958112651    -1.1919466397    -1.4680458543
H     -1.7687825052    -2.0175883372     0.0962480102
H      0.8687359322    -1.4825625993    -1.7788397125
H      0.5676737996    -2.7128305246    -0.5269883504
H      2.9495321127     0.0871310997    -1.4026014318
H      2.5579823121     0.4250045630     0.2929628393
H      4.5853735722     1.8388159944     0.6121580727
H      4.8284643614     1.6385227605    -1.1409699202
H      6.8002731734     1.4513169133     2.1647668753
H      8.3465718758     1.3197158409     1.2605056118
H      7.2401054500    -0.0901653749     1.3702242639
