44
pvdf conformer_007_frame18 from conformer_007_frame18.cosmo (coord_rad bohr -> angstrom)
C     -6.6299375023     1.6810792865     0.1585269439
F     -7.6401328847     0.8036844616    -0.1982351579
F     -6.7940247950     2.8094003034    -0.6343403414
C     -5.2561012541     1.0886157406    -0.1312865069
C     -4.8522759948    -0.0621464877     0.7905381324
F     -5.0227984743     0.3540176342     2.1181879081
F     -5.7269174720    -1.1289653247     0.6359677530
C     -3.4036032241    -0.5646796921     0.6983193828
C     -2.9062098464    -1.0645386381    -0.6610321336
F     -3.8006667697    -2.0036145120    -1.1730327997
F     -2.9141649412    -0.0196800002    -1.5813296237
C     -1.5320138032    -1.7542908423    -0.6798957506
C     -0.3006265350    -0.9449466690    -0.2501996992
F     -0.1910627304     0.2029476149    -1.0294116889
F     -0.4604517993    -0.4876018199     1.0543217559
C      0.9825934483    -1.7796206049    -0.3610732878
C      2.3065723323    -1.1588696838     0.1162334631
F      3.2638622850    -2.1665550028    -0.0601727290
F      2.2554705990    -0.9471396455     1.4847609078
C      2.7624125890     0.1107657499    -0.6072866317
C      4.0860445931     0.7667367135    -0.1775598862
F      3.9756948908     1.2226819584     1.1284854030
F      4.1839977003     1.9260338465    -0.9583178862
C      5.3575150504    -0.0673864641    -0.3496517550
C      6.6953551314     0.5711066609     0.0531615537
F      6.7291690470     0.7325144210     1.4405416803
F      7.6662858452    -0.4101149594    -0.2113115761
C      7.1327409237     1.8604741278    -0.6052203199
H     -6.7942285482     1.9774841355     1.2063174623
H     -4.5170786081     1.8972189221    -0.0119876102
H     -5.2252718627     0.7511994751    -1.1785944088
H     -2.7419248788     0.2509777655     1.0260274301
H     -3.3076499387    -1.3855812401     1.4274062689
H     -1.3715907075    -2.0991178225    -1.7147969777
H     -1.5957444921    -2.6430958061    -0.0338695932
H      1.1051644796    -2.0691936611    -1.4165285178
H      0.8454690268    -2.7018089656     0.2274102643
H      2.8310534268    -0.1191372998    -1.6823709340
H      1.9832075713     0.8783101023    -0.4822513573
H      5.4263283811    -0.3516583599    -1.4120376253
H      5.2519367353    -0.9927681925     0.2362418795
H      6.4473318452     2.6775378303    -0.3420021605
H      7.1422347473     1.7409692284    -1.6989809380
H      8.1476228670     2.1063879262    -0.2564466588
