44
pvdf conformer_021_frame80 from conformer_021_frame80.cosmo (coord_rad bohr -> angstrom)
C      7.7798475811    -0.4503628681     0.2410899269
F      8.8896818817     0.3730751707     0.3770281660
F      8.0427724124    -1.2858483961    -0.8309604284
C      6.5610630955     0.4256821128    -0.0238999345
C      5.2233206252    -0.3230865833    -0.0146536343
F      5.2085117645    -1.2648915028    -1.0357822255
F      5.1291093653    -1.0567518286     1.1669483782
C      4.0228303902     0.6236288479    -0.1581329490
C      2.6141865753     0.0319549364     0.0139147084
F      2.4724557674    -1.1142875983    -0.7569570977
F      2.4380834389    -0.3790110587     1.3288825838
C      1.5311261055     1.0517580235    -0.3770812567
C      0.0759410929     0.7200825310    -0.0115317299
F     -0.2265516757    -0.5925419496    -0.3698543808
F     -0.0864496071     0.7699845477     1.3666432503
C     -0.9092175783     1.6780608833    -0.6962068275
C     -2.3850987460     1.6378344044    -0.2630673414
F     -3.0335642533     2.5711555848    -1.0728790487
F     -2.4952321584     2.1386865981     1.0270395825
C     -3.0837735763     0.2778054706    -0.3719537944
C     -4.5835783491     0.2006768316    -0.0426482736
F     -5.3063581695     1.0371961272    -0.8828249569
F     -4.8138973591     0.6820456177     1.2443290846
C     -5.1053309208    -1.2387849891    -0.1517466365
C     -6.6141660230    -1.4703161108     0.0195971775
F     -7.2893962429    -0.9379884984    -1.0814561580
F     -6.7931964062    -2.8590037917    -0.0953937157
C     -7.2922066038    -1.0042073757     1.2880514834
H      7.7086262219    -1.0737337145     1.1459997976
H      6.6903732172     0.9360354860    -0.9924230739
H      6.5305499534     1.1898681364     0.7689870927
H      4.1283405678     1.4311782629     0.5837778601
H      4.0888109459     1.0813813324    -1.1590184168
H      1.5958133287     1.1919527446    -1.4680422516
H      1.7687810097     2.0175865307     0.0962563976
H     -0.8687349443     1.4825687345    -1.7788391752
H     -0.5676728702     2.7128314939    -0.5269825346
H     -2.9495360934    -0.0871237411    -1.4026074084
H     -2.5579811310    -0.4250063457     0.2929537597
H     -4.5853700072    -1.8388230421     0.6121352255
H     -4.8284739338    -1.6385080414    -1.1409886999
H     -6.8002536039    -1.4513492043     2.1647656236
H     -8.3465609025    -1.3197326639     1.2605213328
H     -7.2400925895     0.0901461465     1.3702516566
