98
polyethersulfone conf_3850 from conf_3850.cosmo (coord_rad bohr -> angstrom)
O    -10.8406566055     6.6582564084    -4.4817794643
H    -11.8749157363     6.8092336569    -1.9920675321
C    -10.2154618859     6.3381938732    -3.3133269563
C    -10.8458799141     6.4408652192    -2.0585903900
C     -8.8873616497     5.8787846747    -3.3890903806
C    -10.1564243888     6.0991070765    -0.8953605303
H     -8.4049116234     5.8144969133    -4.3685085225
H    -10.3545971058     1.2879826825     2.3416341575
H    -10.6382174842     6.1963948028     0.0834293664
H    -10.0150675808     3.7396031067     1.9550473080
C     -9.4997114714     1.6440068318     1.7596457524
C     -8.1887829458     5.5375467886    -2.2338440857
C     -9.3119841850     3.0084349216     1.5420850603
C     -8.8375439373     5.6422071286    -0.9954785349
C     -5.8138632868    -2.3605648898     2.5883284855
C     -6.7263193917    -1.3303303457     2.3583931818
C     -6.0868467456    -3.6362587326     2.0829505028
H     -4.9082985328    -2.1758111209     3.1755610084
C     -7.8993067349    -1.5818630492     1.6301058479
C     -7.2590613981    -3.9098562007     1.3694641053
H     -6.5356536649    -0.3373233225     2.7722384715
C     -8.1589539351    -2.8700159212     1.1400286906
O     -8.8885247662    -0.6311301465     1.4447893157
C     -8.5831396515     0.7077688180     1.2603910462
H     -7.4699029200    -4.9199980273     1.0029551449
H     -9.0869456985    -3.0500684401     0.5902405547
H     -7.1490697201     5.1982365639    -2.2936495376
C     -8.1970131961     3.4192572142     0.8024415569
S     -7.9308489855     5.2031286394     0.5178956588
C     -7.4753938394     1.1375613392     0.5129441792
C     -7.2763775851     2.5006866635     0.2885629649
O     -8.5873027612     5.9365420929     1.6623735541
O     -6.4595795487     5.3861505834     0.2342743867
H     -6.7660956595     0.4126401781     0.1064600371
H     -6.4068061028     2.8471429421    -0.2799336309
C     -3.7154795681    -4.9922345318     1.0123915286
C     -3.9990754067    -5.7630639579    -0.1207568488
H     -4.9153674393    -6.3597997066    -0.1805355879
C     -2.5394730659    -4.2423941070     1.1174622624
C     -3.0778021804    -5.7714293872    -1.1672348690
H     -2.3352090475    -3.6523558370     2.0172395947
C     -1.6251379599    -4.2593469145     0.0634335258
C     -1.8878167872    -5.0354253759    -1.0767733383
H     -3.2621166205    -6.3708968647    -2.0632700520
O     -1.0657111693    -5.0295911582    -2.1916154480
H     -0.7079885445    -3.6696300133     0.1330080993
H      0.4926085314    -6.1537451492    -0.2713707322
C      0.3124444655    -4.9588225122    -2.0749629077
C      1.0238786018    -5.6019921384    -1.0504893785
C      1.0022911640    -4.2905974311    -3.0968348236
C      2.4187060058    -5.5690864515    -1.0436762019
H      0.4300657048    -3.8111045740    -3.8958789009
H      6.2024396724    -0.1055429969    -1.6127747205
H      2.9796485781    -6.0894152972    -0.2603803177
H      5.5032100902    -2.1227678754    -2.8930027467
C      6.0369678841    -1.0499901109    -1.0888343879
C      2.3961367759    -4.2567529793    -3.1057903500
C      5.6382500483    -2.1776144754    -1.8077810557
C      3.0880244791    -4.8885860836    -2.0664156844
O      6.5316512923    -0.0356697096     1.0837822025
C      6.2245514863    -1.1354436301     0.2993600932
H      2.9360315377    -3.7494057026    -3.9122740978
C      5.4184075218    -3.3781229834    -1.1246036872
S      4.9121851575    -4.8563636344    -2.0666939190
C      5.9893990105    -2.3459594399     0.9670103320
C      5.5917263878    -3.4801267485     0.2604025211
O      5.3545521631    -4.6451660727    -3.4933937921
O      5.3766477141    -6.0622513323    -1.2880279027
H      6.1443242619    -2.3924478973     2.0485835069
H      5.4347796958    -4.4317998743     0.7790811262
S     -4.9030307012    -4.9881243802     2.3975638258
O     -4.1311945375    -4.6233672614     3.6415601852
O     -5.6768701989    -6.2810517745     2.3240558044
C      7.1598522132     2.2538541022     1.1089184547
C      8.0320366781     3.2923783941     0.7864325796
H      7.8306586040     4.3136340272     1.1271352418
C      9.1563353137     3.0025749574     0.0044486541
C      9.4167390980     1.7091074073    -0.4590235331
H     10.2987915925     1.5070433023    -1.0756961086
C      8.5355999840     0.6782681205    -0.1296001093
C      7.3982542943     0.9515393744     0.6459620781
H      8.7364664725    -0.3368927041    -0.4799517864
H      6.2662259762     2.4463211128     1.7092400161
S     10.3015290773     4.3536569342    -0.4359474200
O      9.5070821561     5.6362752583    -0.4211761116
O     11.0384138757     3.9209975561    -1.6794878230
H     12.8641492513     3.0301301052    -0.0205887835
C     12.6896118614     3.6850706253     0.8402937353
C     13.6261191099     3.7776529666     1.8758836506
H     14.5410462899     3.1773971965     1.8322591974
C     13.3947820279     4.6360535791     2.9581174242
H     14.1333776161     4.7051910401     3.7651087532
C     12.2318133946     5.4143449252     3.0115446097
H     12.0574286302     6.0920029643     3.8539869137
C     11.2856176219     5.3329458293     1.9837175689
H     10.3779247696     5.9462156076     2.0015238210
C     11.5317129092     4.4668181037     0.9136414766
H    -11.7537108360     6.9537194865    -4.2981417388
