98
polyethersulfone conf_9610 from conf_9610.cosmo (coord_rad bohr -> angstrom)
O    -12.9993344670     6.8589433971    -3.0770234710
H    -10.7536756099     6.7165083453    -1.8144700957
C    -12.7878237890     6.0205334706    -2.0230046954
C    -11.5128855380     6.0311866734    -1.4270704279
C    -13.7805582247     5.1540648206    -1.5269135818
C    -11.2307242310     5.2042927888    -0.3426927922
H    -14.7780625434     5.1484777881    -1.9785785761
H     -8.2600699517     0.2027940696     0.1441073631
H    -10.2442516697     5.2284131553     0.1325754592
H     -9.1574720391     2.3494884358     1.0375640642
C     -9.3384249801     0.3343088424     0.2622336124
C    -13.5078914266     4.3199663208    -0.4429928171
C     -9.8390435565     1.5399468101     0.7557671793
C    -12.2325543578     4.3466596866     0.1325684961
C     -6.8222596228    -4.0171611301    -0.8393591446
C     -7.9450572161    -3.2724193280    -1.1970021392
C     -6.3914353154    -3.9829843165     0.4916636306
H     -6.2925086076    -4.6200408267    -1.5844212091
C     -8.6355327882    -2.5182984203    -0.2367555504
C     -7.0717950044    -3.2451183548     1.4663600385
H     -8.3117264628    -3.2805611221    -2.2272015599
C     -8.1984110041    -2.5094994428     1.0969715540
O     -9.7943543725    -1.8877214613    -0.6545235335
C    -10.2222215121    -0.7019367077    -0.0774001754
H     -6.7412588675    -3.2615780436     2.5102305808
H     -8.7517279023    -1.9515589602     1.8559765600
H    -14.2851329539     3.6601833849    -0.0427154513
C    -11.2216763531     1.7003365552     0.8914555240
S    -11.8762115451     3.2712042484     1.5544495252
C    -11.6053377478    -0.5179746052     0.0565904496
C    -12.1181631638     0.6817227132     0.5492001196
O    -13.1944267312     2.9545883285     2.2183947326
O    -10.7581245997     3.9136893319     2.3390223923
H    -12.2763463388    -1.3391528322    -0.2111975012
H    -13.1974933487     0.8135908576     0.6796124922
C     -3.4751566371    -3.8713662597     0.8030724704
C     -3.0631232554    -3.1068739424     1.9002552611
H     -3.5993798778    -3.1586294141     2.8536088490
C     -2.7902923678    -3.8379258261    -0.4163341510
C     -1.9412355521    -2.2909071490     1.7608503836
H     -3.1247312215    -4.4503730833    -1.2602828213
C     -1.6690018478    -3.0170870439    -0.5428944906
C     -1.2345389449    -2.2515176805     0.5503438536
H     -1.5853625306    -1.6887859658     2.6015563511
O     -0.1824220860    -1.3545301670     0.4668093422
H     -1.1325958118    -2.9771535932    -1.4939177037
H      1.1203066456     0.4587845315    -0.8183491776
C      0.9420586696    -1.6247871135    -0.2955349313
C      1.5787269647    -0.5308236194    -0.8990660600
C      1.5079273571    -2.9058847621    -0.3871047056
C      2.7621913977    -0.7057024841    -1.6150898651
H      1.0259498015    -3.7597031983     0.0949957076
H      8.3279447709     0.4238556906    -0.3677032439
H      3.2453114114     0.1442674888    -2.1085217410
H      6.4244414001     0.1077011447    -1.9418286760
C      7.8787909446    -0.5651654751    -0.4846362674
C      2.6922619684    -3.0942329231    -1.1005423898
C      6.8075324778    -0.7387973771    -1.3619986449
C      3.3063993940    -1.9919600466    -1.7041750222
O      9.3741893907    -1.5457926461     1.1879412304
C      8.3734520793    -1.6622815502     0.2386024798
H      3.1305304013    -4.0937526511    -1.1898184942
C      6.2329703022    -2.0067761742    -1.4958643582
S      4.8438488739    -2.2389295396    -2.6554790699
C      7.7772311370    -2.9238314540     0.0973890809
C      6.7075099804    -3.1100114211    -0.7767200360
O      4.9240825411    -1.1252893218    -3.6700928555
O      4.8645207497    -3.6824201542    -3.0936243266
H      8.1798805338    -3.7654814908     0.6680528825
H      6.2601085622    -4.1012544427    -0.9058829957
S     -4.9292018435    -4.9599507667     0.9760429693
O     -5.0734188996    -5.2776521145     2.4439174483
O     -4.7780022398    -6.0658932434    -0.0389427534
C     11.0341716489    -0.4006463841    -0.1990374631
C     12.1391710437     0.4480843502    -0.2709234632
H     12.6415278834     0.6203920666    -1.2285760061
C     12.6110191967     1.0488504454     0.9015164943
C     12.0160178044     0.8068259855     2.1440559559
H     12.4138434019     1.2674543149     3.0543851831
C     10.9078397040    -0.0379440902     2.2009085343
C     10.4141657064    -0.6425960772     1.0364473766
H     10.4215409120    -0.2526002897     3.1565339103
H     10.6740717815    -0.8975356329    -1.1031231779
S     14.0667764035     2.1463542340     0.8133984490
O     14.8741005811     1.7199797343    -0.3878480715
O     14.6888163442     2.1683996490     2.1877363295
H     13.5917188900     3.5825497121    -1.6768690826
C     13.3076819029     4.2490104649    -0.8550051943
C     12.8291252599     5.5397625722    -1.1063786138
H     12.7240780470     5.8851894213    -2.1402892868
C     12.4912747717     6.3832311104    -0.0407113887
H     12.1186499277     7.3938915366    -0.2437718351
C     12.6359116815     5.9487288011     1.2828515503
H     12.3798370227     6.6139566061     2.1142553499
C     13.1128357189     4.6607088451     1.5507497972
H     13.2460739883     4.3114977184     2.5807158224
C     13.4410404693     3.8312742245     0.4730758649
H    -13.9153984192     6.7579978679    -3.4017016527
