98
polyethersulfone conf_4460 from conf_4460.cosmo (coord_rad bohr -> angstrom)
O     14.0208412440     0.6807653652     1.1800737665
H     13.9170680688    -1.6712392125    -0.1393196569
C     13.1531548546     0.3362911037     0.1866508369
C     13.1716644091    -0.9262319762    -0.4367629188
C     12.2015808610     1.2941720456    -0.2097497704
C     12.2602739673    -1.2248549948    -1.4491681459
H     12.2041161142     2.2749998590     0.2741349231
H      7.4554565165    -4.4842394070    -1.5491561295
H     12.2872467044    -2.2001364398    -1.9472640176
H      9.4550994184    -3.4326433394    -2.6382069752
C      7.5268814445    -3.3972834072    -1.6468061238
C     11.2882173544     1.0074542214    -1.2211777928
C      8.6391928258    -2.8125142562    -2.2526252268
C     11.3215521212    -0.2565797639    -1.8250102848
C      2.5618295528    -2.7496914284     1.6310454779
C      3.3110763339    -3.1121497624     0.5131517371
C      3.1915977826    -2.0305069592     2.6535361530
H      1.5052345663    -3.0273366429     1.7073535886
C      4.6704680559    -2.7764441785     0.4243973756
C      4.5478158324    -1.6945854019     2.5890227638
H      2.8526263204    -3.6786785382    -0.3022888005
C      5.2893063039    -2.0697023893     1.4679279481
O      5.3583673787    -3.2579799026    -0.6745097248
C      6.4742491919    -2.6024597901    -1.1738260532
H      5.0288761909    -1.1632340772     3.4171362433
H      6.3547896473    -1.8333449661     1.4208885654
H     10.5596307932     1.7590912309    -1.5428583665
C      8.6868567889    -1.4190812321    -2.3610628835
S     10.1371550362    -0.6381625462    -3.1500516141
C      6.5307060566    -1.2065685002    -1.3086643550
C      7.6410719314    -0.6085295225    -1.9056696377
O     10.7695371822    -1.6835729354    -4.0364863155
O      9.6710928916     0.6758383140    -3.7285046820
H      5.6956442291    -0.5861354594    -0.9738526308
H      7.6810664738     0.4782146857    -2.0350465034
C      1.5112049347     0.0892988642     3.7850993206
C      2.2306475839     1.2332811668     4.1484299556
H      3.2095807814     1.1513440529     4.6323296161
C      0.2448831908     0.1721239088     3.1965417209
C      1.6711896703     2.4830251406     3.8866682831
H     -0.3167174213    -0.7363722317     2.9543418892
C     -0.3080616730     1.4289965645     2.9477191108
C      0.4071816391     2.5880379494     3.2881490847
H      2.2035901274     3.3979683352     4.1613748244
O     -0.1165630100     3.8626104713     3.1555522966
H     -1.3080238881     1.5032432781     2.5138484421
H     -2.0581457958     5.5342816135     3.4039831655
C     -0.9686341269     4.1937205579     2.1151323965
C     -1.9616536052     5.1457839750     2.3862529753
C     -0.8073754239     3.6966500387     0.8121972934
C     -2.7986940499     5.6061290950     1.3706034825
H     -0.0121011931     2.9817425201     0.5880480598
H     -6.1921264074     1.6850175537    -2.8081561322
H     -3.5635687264     6.3619904091     1.5774188258
H     -4.2222866619     3.2028917403    -2.7240918315
C     -6.2119106326     2.5638757448    -2.1591300638
C     -1.6436379913     4.1434286948    -0.2115114546
C     -5.1073718940     3.4151283417    -2.1154855016
C     -2.6356410170     5.0850462260     0.0824263660
O     -8.5149992293     2.1026478803    -1.4718090650
C     -7.3551776289     2.8582901613    -1.4005376641
H     -1.5086755310     3.7775211771    -1.2348454545
C     -5.1613403658     4.5559223638    -1.3071940260
S     -3.7238883770     5.6783611374    -1.2559729306
C     -7.3931708928     4.0119505285    -0.6050132782
C     -6.2988797012     4.8753048238    -0.5582401828
O     -2.9729139350     5.4990138174    -2.5521838839
O     -4.2352727108     7.0366398855    -0.8448550363
H     -8.2999722204     4.2333832612    -0.0353486718
H     -6.3322885774     5.7858340229     0.0491454953
S      2.2271551075    -1.5535874190     4.1256271105
O      1.0773095085    -2.5240021699     4.2383944369
O      3.2046738210    -1.3851561451     5.2625897299
C     -7.4939559205    -0.0497103056    -0.9021198881
C     -7.5653716987    -1.4426545829    -0.9481226049
H     -6.7955849516    -2.0518100138    -0.4621843566
C     -8.6268765621    -2.0501384335    -1.6264532928
C     -9.6191149568    -1.2978587659    -2.2656844639
H    -10.4349613791    -1.7881188344    -2.8073714585
C     -9.5373659784     0.0926636057    -2.2125230598
C     -8.4749773003     0.7211719656    -1.5464717233
H    -10.2897728117     0.7117426544    -2.7093222565
H     -6.6724936211     0.4323463781    -0.3670369631
S     -8.7113913531    -3.8713265633    -1.7004057034
O     -7.3068178095    -4.3883006135    -1.5086689510
O     -9.5006387303    -4.2317863114    -2.9347317180
H    -11.5627591398    -4.3598017495    -1.3503465654
C    -11.0764822827    -4.5560179463    -0.3883823356
C    -11.8181944046    -4.9740479042     0.7222353675
H    -12.9030336488    -5.0945894739     0.6331036019
C    -11.1743216714    -5.2396284976     1.9372137132
H    -11.7604593844    -5.5684626987     2.8031400919
C     -9.7856439677    -5.0982411468     2.0509344268
H     -9.2833859800    -5.3158151844     2.9994721463
C     -9.0299956823    -4.6811173806     0.9495169080
H     -7.9410801268    -4.5811188221     1.0181155496
C     -9.6912712926    -4.4161406284    -0.2543698044
H     14.6211002856    -0.0668782678     1.3682841535
