98
polyethersulfone conf_2680 from conf_2680.cosmo (coord_rad bohr -> angstrom)
O    -16.2283217951    -4.1627431020    -2.1222188002
H    -14.0923346831    -5.7798827172    -1.7956339518
C    -15.1559588752    -3.9491145223    -1.3080135590
C    -14.0797469872    -4.8522707381    -1.2136925271
C    -15.1403182957    -2.7660988955    -0.5463116805
C    -13.0085711469    -4.5840825066    -0.3618008312
H    -15.9869947332    -2.0777206855    -0.6197814727
H     -9.5179067906     1.0291587290    -0.3356254755
H    -12.1804767155    -5.2956904470    -0.2732906117
H    -11.2319379613    -0.2032408098     0.9808457748
C     -9.4683621425    -0.0601402610    -0.2667580294
C    -14.0768831451    -2.4894304310     0.3091551878
C    -10.4357911393    -0.7502563294     0.4649269212
C    -13.0141319845    -3.3998136315     0.3846472183
C     -5.9707511435     3.1286284289    -2.2803748403
C     -6.5852261862     1.8962534776    -2.4963594516
C     -5.7349055892     3.5371260431    -0.9627071098
H     -5.6930225497     3.7683967862    -3.1246476842
C     -6.9710903957     1.0917857979    -1.4139854398
C     -6.1027564495     2.7452116920     0.1300942182
H     -6.7940858356     1.5509822992    -3.5128296023
C     -6.7166046059     1.5132080688    -0.0994563843
O     -7.4980082842    -0.1512778142    -1.7188261936
C     -8.4375316386    -0.7659023956    -0.9062815505
H     -5.9169160171     3.0872146111     1.1536896354
H     -6.9988789703     0.8843829454     0.7480957487
H    -14.0743752104    -1.5781958283     0.9166082109
C    -10.3690775065    -2.1459978440     0.5347027616
S    -11.6253502372    -3.0491569600     1.5043903394
C     -8.3940131575    -2.1652316047    -0.8320870483
C     -9.3556210165    -2.8668666422    -0.1056901158
O    -11.0119830295    -4.3727567810     1.8922782447
O    -12.1307345827    -2.0996286710     2.5634010480
H     -7.5820171506    -2.6970740906    -1.3359735711
H     -9.3084955557    -3.9579558999    -0.0262912731
C     -3.1476499840     4.8747989603    -0.6070405084
C     -2.4048377683     4.9708165327    -1.7891359380
H     -2.8919466959     5.2105920757    -2.7401830286
C     -2.5404618536     4.6020450713     0.6233566945
C     -1.0276884038     4.7618680978    -1.7306543227
H     -3.1350080519     4.5669731654     1.5421714567
C     -1.1601777909     4.4030706567     0.6696186158
C     -0.4011078279     4.4787782124    -0.5082534907
H     -0.4162079113     4.8343748696    -2.6343546967
O      0.9802971266     4.3848959047    -0.5212584211
H     -0.6732233498     4.2177651929     1.6299343265
H      3.2783897128     4.9546169699     0.4920595842
C      1.6596603915     3.5398565468     0.3405352374
C      2.9255581194     3.9586156905     0.7743318426
C      1.1812355434     2.2671038081     0.6904819663
C      3.7113325462     3.1312234357     1.5754032601
H      0.2031146433     1.9276020781     0.3414298275
H      5.2601739016    -3.1743052136     0.1946645576
H      4.6886997156     3.4693100709     1.9356332562
H      3.8012478253    -1.8113589923     1.7085422447
C      5.6013457902    -2.2045736134     0.5680889474
C      1.9584443934     1.4295060184     1.4916121248
C      4.7888301299    -1.4453097466     1.4085723922
C      3.2139025438     1.8702190282     1.9228278253
O      7.5863255464    -2.5267629355    -0.6936060228
C      6.8795352892    -1.7519923982     0.2098340355
H      1.5862417536     0.4415030280     1.7830416905
C      5.2715162708    -0.2162635109     1.8727284141
S      4.2242059316     0.7824338412     2.9833691356
C      7.3434783093    -0.5118099605     0.6772160399
C      6.5389603928     0.2575072250     1.5188926716
O      3.2762764384    -0.1653103927     3.6755830438
O      5.1457970365     1.6697515912     3.7829665104
H      8.3314618569    -0.1450121168     0.3893266470
H      6.8997499787     1.2184266811     1.9012559802
S     -4.9494022244     5.1561869742    -0.6652661291
O     -5.2259620440     6.0135444899    -1.8754298603
O     -5.3721315595     5.6087114135     0.7105673045
C      9.6170506506    -2.6863668419    -1.9198385915
C     11.0022020595    -2.8347868345    -1.9849539715
H     11.5070379903    -2.9405528736    -2.9509557357
C     11.7311237956    -2.8502308830    -0.7910665776
C     11.1046307003    -2.7480575625     0.4558984419
H     11.6888703817    -2.8010105736     1.3804970101
C      9.7174637907    -2.6076215838     0.5071901988
C      8.9713395522    -2.5722715456    -0.6807332448
H      9.2148072218    -2.5554240597     1.4760064278
H      9.0161988793    -2.6745903319    -2.8334120264
S     13.5445444315    -3.0482753464    -0.8601030414
O     13.8691217923    -3.7102560157    -2.1763909419
O     13.9724016560    -3.6781773107     0.4425426940
H     14.2520884648    -1.2967549238    -3.0766550622
C     14.4871919659    -0.7620971189    -2.1496498159
C     15.0385665969     0.5237350743    -2.1788268755
H     15.2271927736     1.0090949188    -3.1422600040
C     15.3499230593     1.1817310093    -0.9823840289
H     15.7833195321     2.1881155350    -1.0118325366
C     15.1213104160     0.5592045063     0.2511291235
H     15.3745136092     1.0721916073     1.1849617844
C     14.5706786459    -0.7264351501     0.2970928439
H     14.4015310046    -1.2334420393     1.2534990968
C     14.2619057307    -1.3658042900    -0.9080655422
H    -16.1169337939    -5.0082283584    -2.5989432890
