98
polyethersulfone conf_2830 from conf_2830.cosmo (coord_rad bohr -> angstrom)
O     10.7314134796    -6.0612825183     4.1016467941
H      9.6785356777    -6.8879077073     1.7580256622
C     10.9503283080    -5.5211382898     2.8692786849
C     10.3439917757    -6.0201678524     1.7003283329
C     11.8139541296    -4.4132435270     2.7867869107
C     10.6072164178    -5.4303907635     0.4642946626
H     12.2869429224    -4.0412388020     3.7000404309
H      9.9455046947     0.9982883080    -0.8746894109
H     10.1515213276    -5.8306539334    -0.4479302790
H     11.6762135960    -0.7421541742    -0.4639810725
C      9.7824244084    -0.0232180429    -1.2272755277
C     12.0850149906    -3.8176516963     1.5575455553
C     10.7550344266    -0.9970514679    -0.9983191846
C     11.4690750102    -4.3285683236     0.4072601659
C      6.6721315498     2.3146635818     0.8545878597
C      7.1846596732     1.3294740727     0.0093685382
C      6.2139964765     3.5161252287     0.3038481517
H      6.6336524020     2.1483302768     1.9366144226
C      7.2475316513     1.5601871008    -1.3745402469
C      6.2607409442     3.7596930160    -1.0736434839
H      7.5373114644     0.3851987822     0.4305231776
C      6.7738544096     2.7681691479    -1.9078320250
O      7.6646866996     0.6018326217    -2.2803399834
C      8.6186748104    -0.3469030588    -1.9412475314
H      5.9142758475     4.7125210299    -1.4873874130
H      6.8339683388     2.9284107197    -2.9880635391
H     12.7726532585    -2.9680197138     1.4902121960
C     10.5470152915    -2.2915633038    -1.4881086834
S     11.8249669069    -3.5648346214    -1.2032277519
C      8.4334714352    -1.6465091990    -2.4312192771
C      9.4012062688    -2.6280055882    -2.2152507947
O     11.6291233931    -4.6239118251    -2.2607926850
O     13.1456306236    -2.8450736822    -1.0757611211
H      7.5279997567    -1.8751014996    -3.0002394586
H      9.2684942886    -3.6401428778    -2.6112144548
C      3.7685987476     4.4999158228     1.5878613259
C      3.3164497338     3.7148346807     2.6535582389
H      4.0225911001     3.2908515420     3.3751358623
C      2.8833094806     5.0778506029     0.6710206217
C      1.9464017461     3.4869929504     2.7815834730
H      3.2534454451     5.7212570137    -0.1340134867
C      1.5148620103     4.8475687313     0.8144749480
C      1.0440679855     4.0484701273     1.8675919541
H      1.5587024755     2.8816840038     3.6056429053
O     -0.3065952605     3.8592562837     2.1151936386
H      0.8118803644     5.3156340832     0.1210901930
H     -2.7490205403     4.6658221407     2.2225957315
C     -1.2098778579     3.6781528198     1.0819437633
C     -2.5212370828     4.1253637397     1.2994499673
C     -0.8891061064     2.9846979332    -0.0960678550
C     -3.5125724071     3.9111048783     0.3431312835
H      0.1265344329     2.6194421569    -0.2652212579
H     -5.0478818342    -1.9572930290    -2.2838206121
H     -4.5297437972     4.2844888218     0.5023697437
H     -3.8788248031     0.1877035455    -2.8389563865
C     -5.4196234973    -1.0061063309    -1.8923135642
C     -1.8732290449     2.7631200691    -1.0603314400
C     -4.7675543933     0.1874774934    -2.1990745863
C     -3.1724487030     3.2260713546    -0.8293175283
O     -7.1184456112    -2.2369960754    -0.7739356504
C     -6.5778662969    -1.0045432686    -1.1021982432
H     -1.6287914895     2.2371129747    -1.9893687135
C     -5.2866063510     1.3823052662    -1.6872663434
S     -4.4555062040     2.9542033405    -2.0970213174
C     -7.0783618310     0.2026198011    -0.5891166176
C     -6.4340920732     1.4038034498    -0.8881004556
O     -3.7421339439     2.7531298202    -3.4110870611
O     -5.4810796130     4.0491193316    -1.9375909497
H     -7.9707724255     0.2087691382     0.0412629940
H     -6.8261131246     2.3522863579    -0.5058445019
S      5.5584822662     4.8092219496     1.4100955831
O      6.1818185383     4.5939571922     2.7669767382
O      5.7127055929     6.1278665584     0.6934322625
C     -8.9071973129    -3.3632945436     0.3099625638
C    -10.2606044068    -3.6691464324     0.4476132998
H    -10.5915078735    -4.4241375338     1.1684487075
C    -11.1853121158    -2.9960167573    -0.3580021919
C    -10.7834271583    -2.0490504110    -1.3064927009
H    -11.5186987773    -1.5592558698    -1.9535538203
C     -9.4255749555    -1.7570054304    -1.4389910085
C     -8.4846719490    -2.4112997813    -0.6288831805
H     -9.0985463106    -1.0393938043    -2.1951368288
H     -8.1574571160    -3.8745382248     0.9201401747
S    -12.9589739139    -3.3943177099    -0.1961232665
O    -13.0499359389    -4.7736272810     0.4086708921
O    -13.6058681344    -3.0952839413    -1.5261080494
H    -13.2401972747    -3.5307533638     2.6995147797
C    -13.6474822338    -2.5663998094     2.3759218326
C    -14.1877025552    -1.6657393438     3.3006934068
H    -14.1920538372    -1.9220074904     4.3654357427
C    -14.7222569292    -0.4469106844     2.8645203539
H    -15.1455843045     0.2535540535     3.5936719759
C    -14.7296163335    -0.1211715628     1.5025100303
H    -15.1568621722     0.8283364109     1.1630225725
C    -14.1933408724    -1.0112945553     0.5653156690
H    -14.2057282950    -0.7791655364    -0.5053375497
C    -13.6598283327    -2.2214336383     1.0202586651
H     10.1169678096    -6.8172162508     4.0262942225
