98
polyethersulfone conf_9360 from conf_9360.cosmo (coord_rad bohr -> angstrom)
O    -12.6065619434     5.5613905672    -3.9373426910
H    -10.4556636939     5.8448441924    -2.5415961849
C    -12.4770626420     5.0930136915    -2.6635906018
C    -11.2464211551     5.3036853622    -2.0143455792
C    -13.5101180964     4.4102255035    -1.9930900673
C    -11.0478194888     4.8554394677    -0.7109685837
H    -14.4740680756     4.2540477847    -2.4887715380
H     -8.2465921624     0.2067383963     1.3754142312
H    -10.0967563662     5.0371221472    -0.1992139409
H     -9.1254048968     2.5333105714     1.4892410851
C     -9.3252969162     0.3788097881     1.4035147507
C    -13.3211450536     3.9550119537    -0.6883789553
C     -9.8159065167     1.6834374015     1.4695793946
C    -12.0877517688     4.1744230044    -0.0638527170
C     -7.2820048064    -2.4549003728    -1.2557514797
C     -8.3528693544    -1.9188917671    -0.5395821558
C     -6.5535156796    -3.5131310126    -0.7020329779
H     -7.0314658800    -2.0658026304    -2.2484150812
C     -8.6864116480    -2.4444522053     0.7189038619
C     -6.8820783016    -4.0611496888     0.5429749476
H     -8.9439603147    -1.1098688510    -0.9751669394
C     -7.9494039779    -3.5120883621     1.2519132602
O     -9.7890516637    -2.0242421208     1.4418442796
C    -10.2160921970    -0.7059503733     1.4099290655
H     -6.3168011363    -4.9055636724     0.9511844673
H     -8.2368072420    -3.9185315327     2.2256756122
H    -14.1305219610     3.4410034647    -0.1586752002
C    -11.1983119108     1.8876951857     1.5401960229
S    -11.8419850229     3.5936378454     1.6410288317
C    -11.5970568865    -0.4803664171     1.4917983958
C    -12.0997488017     0.8184954098     1.5662675500
O    -13.2019911455     3.5107558956     2.2907370349
O    -10.7520166602     4.4408393603     2.2517657522
H    -12.2733562643    -1.3395740883     1.5139181077
H    -13.1770983579     0.9962692502     1.6480452841
C     -3.6671490452    -3.2954478392    -1.1770063849
C     -2.8881607758    -3.7502586599    -0.1077869335
H     -3.1742302886    -4.6498449642     0.4471859178
C     -3.3190891654    -2.1551342243    -1.9094964713
C     -1.7354600759    -3.0448997940     0.2401122738
H     -3.9290676209    -1.8233960868    -2.7562966337
C     -2.1648346633    -1.4595899286    -1.5516512148
C     -1.3650396925    -1.9046255713    -0.4894881590
H     -1.1252821121    -3.3861670573     1.0797745530
O     -0.2834396129    -1.1115893147    -0.1418145508
H     -1.8575934087    -0.5705872821    -2.1095718112
H      1.2145500778     0.0511570242     1.5982595521
C      0.8992362626    -1.6596352591     0.3250905459
C      1.6382778407    -0.8892258243     1.2347346865
C      1.4184771509    -2.8726708963    -0.1532510810
C      2.8805297533    -1.3277470307     1.6904850199
H      0.8555518199    -3.4705103269    -0.8738557540
H      8.3153944559     0.2593131430     0.4096646616
H      3.4451764098    -0.7383707739     2.4206989836
H      6.5777403754    -0.6830693111     1.9246982001
C      7.8458057797    -0.6973172554     0.1687489107
C      2.6611778402    -3.3224232272     0.2949151721
C      6.8668870613    -1.2200055269     1.0149780473
C      3.3787975734    -2.5437633129     1.2086003208
O      9.1215496218    -0.9036253438    -1.9104800549
C      8.2224167365    -1.4047525448    -0.9839811394
H      3.0657287414    -4.2752810662    -0.0622364524
C      6.2644797085    -2.4397722178     0.6904367569
S      4.9983309317    -3.1347498760     1.8059032619
C      7.5990971650    -2.6211644790    -1.2971242541
C      6.6205652083    -3.1541623183    -0.4593607704
O      5.0167861336    -4.6323678092     1.6248959536
O      5.2240871149    -2.5212215613     3.1655666784
H      7.9089424278    -3.1572082554    -2.1987012120
H      6.1535460622    -4.1171504763    -0.6914260351
S     -5.1648106249    -4.2269296755    -1.6448737706
O     -4.9772299288    -5.6423760482    -1.1578502572
O     -5.4262433274    -3.9441136371    -3.1036691049
C     10.6592092836     0.8365301678    -2.4073557703
C     11.8196808505     1.5621668188    -2.1415267812
H     12.1686784481     2.3302329923    -2.8397529026
C     12.5301474899     1.2834932859    -0.9687263394
C     12.1191925832     0.2852097143    -0.0788833258
H     12.7090153294     0.0575846139     0.8151793513
C     10.9603580398    -0.4391291513    -0.3605856092
C     10.2255974863    -0.1623938567    -1.5237655817
H     10.6468355757    -1.2397994657     0.3134571158
H     10.0827931799     1.0252377937    -3.3172630231
S     14.0560129284     2.2192759642    -0.6118673506
O     14.5822021568     2.7307291514    -1.9301891917
O     14.9149201531     1.3480891896     0.2713935634
H     13.2935806233     4.9238615759    -1.3765105200
C     13.2409541649     4.8660403075    -0.2836852480
C     12.8710496250     5.9786361839     0.4802522882
H     12.6178440806     6.9186038659    -0.0214531213
C     12.8297387534     5.8889783253     1.8772414194
H     12.5411480907     6.7644683852     2.4703270497
C     13.1646641447     4.6919882296     2.5226002481
H     13.1407604558     4.6274119050     3.6155605114
C     13.5366873081     3.5705858652     1.7727580519
H     13.8174089684     2.6319015867     2.2631803573
C     13.5676711097     3.6780174857     0.3784385309
H    -13.4965857181     5.3487181718    -4.2796815814
