98
polyethersulfone conf_1770 from conf_1770.cosmo (coord_rad bohr -> angstrom)
O     -9.0775353577    -6.9704772912    -3.6036579848
H     -6.6351345740    -6.3155757501    -2.6595109666
C     -8.7847132629    -6.4554820797    -2.3758566887
C     -7.4727478324    -6.1348364638    -1.9776998442
C     -9.8547796449    -6.2341282531    -1.4890736227
C     -7.2312996866    -5.6103780035    -0.7082186282
H    -10.8678547306    -6.4978187377    -1.8058591498
H    -10.3065804595    -0.3372877160     1.9852516962
H     -6.2090100716    -5.3786581984    -0.3904173084
H    -10.2056080004    -2.8359048045     2.1789678808
C     -9.3692011495    -0.8707424890     1.8038580007
C     -9.6248864467    -5.7130553992    -0.2182761384
C     -9.3132477381    -2.2603026724     1.9117927270
C     -8.3116559557    -5.3963091919     0.1554979926
C     -6.7406565288     2.5067044113    -1.6116255209
C     -7.3704808346     1.6292855179    -0.7283647871
C     -6.3788091073     3.7814791710    -1.1627303273
H     -6.5541348261     2.2070956794    -2.6484903983
C     -7.6336859167     2.0321898673     0.5906658528
C     -6.6500278692     4.2072212786     0.1421981879
H     -7.6801738672     0.6411112443    -1.0765387068
C     -7.2732831260     3.3187444924     1.0172539350
O     -8.3320838066     1.2473633566     1.4913971281
C     -8.2206454193    -0.1344930021     1.4826347514
H     -6.3823441702     5.2174932817     0.4690236239
H     -7.5036810595     3.6197349459     2.0431086872
H    -10.4558692866    -5.5585990402     0.4782074329
C     -8.0923952537    -2.9011667023     1.6763120828
S     -8.0038762293    -4.7199948005     1.8145281703
C     -6.9998109661    -0.7932353076     1.2685109718
C     -6.9321610105    -2.1834977273     1.3658991350
O     -6.5813146948    -5.0643413971     2.1845849327
O     -9.1501889422    -5.1499065070     2.6973336468
H     -6.0942084657    -0.2208496339     1.0531733716
H     -5.9775995082    -2.7012991957     1.2243001448
C     -3.7703216289     4.6337596129    -2.1979550128
C     -3.1702264092     3.7178029666    -3.0685930415
H     -3.7650316360     3.1837569389    -3.8169802803
C     -3.0253122347     5.3507861714    -1.2551522937
C     -1.7960917346     3.5026587749    -2.9681465711
H     -3.5074867176     6.0906153219    -0.6077119720
C     -1.6500755860     5.1315868461    -1.1702212661
C     -1.0332087160     4.2041002152    -2.0237680730
H     -1.2942614333     2.7971708491    -3.6361973120
O      0.3380100767     4.0081885928    -2.0526449674
H     -1.0540608628     5.7060172094    -0.4570300455
H      2.7635860096     4.8658177552    -1.9728859124
C      1.0968775955     4.0262315031    -0.8947061066
C      2.4206454738     4.4742318619    -1.0109791038
C      0.6298317625     3.5209177576     0.3292868099
C      3.2784722298     4.4476597016     0.0876241903
H     -0.3950964879     3.1542313894     0.4225827922
H      4.4357572665    -0.8433396942     3.9738886149
H      4.3041945346     4.8216979728     0.0029563954
H      3.2427907803     1.3614390684     3.9910759726
C      4.8477627254     0.0148424620     3.4355461960
C      1.4789611893     3.4890133219     1.4362261400
C      4.1843220395     1.2410568062     3.4450434916
C      2.7927748889     3.9500152737     1.3021135979
O      6.7076469763    -1.3525377039     2.8756650201
C      6.0645759233    -0.1322312861     2.7544245856
H      1.1177505403     3.1116729831     2.3989441592
C      4.7508168538     2.3135777646     2.7474761124
S      3.8956397561     3.9251127746     2.7550590336
C      6.6272135344     0.9601698083     2.0754750785
C      5.9690890655     2.1904903017     2.0707931405
O      3.0157240519     3.9553253043     3.9801763997
O      4.9455241594     4.9862318747     2.5358974181
H      7.5920743280     0.8610727616     1.5725464478
H      6.4138417823     3.0529875504     1.5630438567
S     -5.5662113006     4.9321259863    -2.3209155999
O     -5.9862812192     4.5331076610    -3.7139990793
O     -5.8217105952     6.3289219811    -1.8112799443
C      7.1372700240    -1.7290564864     0.4951545212
C      7.9082166284    -2.3520045067    -0.4867633889
H      7.6298794101    -2.2682112759    -1.5427573695
C      9.0210921095    -3.1070583036    -0.1001997117
C      9.3698634580    -3.2696721541     1.2446182826
H     10.2306083702    -3.8838552098     1.5291407483
C      8.5951919103    -2.6364418395     2.2158838521
C      7.4820893280    -1.8670304082     1.8490625191
H      8.8365836954    -2.7459571395     3.2768800257
H      6.2510254625    -1.1589474758     0.2064408007
S     10.0214947672    -3.9350295799    -1.3825915758
O      9.1139409070    -4.1899333098    -2.5608383110
O     10.7462802816    -5.0753233944    -0.7112472319
H     12.7097659999    -3.3652581251    -0.4153531508
C     12.5093919160    -2.6828433891    -1.2489403461
C     13.4739604723    -1.7622282400    -1.6734612988
H     14.4387007801    -1.7136284271    -1.1574416828
C     13.2067198515    -0.9121524087    -2.7540163716
H     13.9674369650    -0.1946712211    -3.0827470557
C     11.9789438410    -0.9793823348    -3.4241646857
H     11.7758127612    -0.3202471413    -4.2748445922
C     11.0039935641    -1.8946525841    -3.0117558201
H     10.0445510934    -1.9717016134    -3.5349654688
C     11.2872777767    -2.7321774893    -1.9282485051
H     -8.2568508318    -7.0682909711    -4.1247879462
