98
polyethersulfone conf_6720 from conf_6720.cosmo (coord_rad bohr -> angstrom)
O     13.7720185859    -6.3837044925     1.8107783443
H     11.7299057036    -6.1638857088     0.2469330502
C     13.5928026400    -5.3341317072     0.9593632206
C     12.4304411461    -5.3278897623     0.1664215898
C     14.5113464902    -4.2718415216     0.8568608490
C     12.1897592827    -4.2879700891    -0.7279569492
H     15.4230071081    -4.2778241390     1.4635938889
H      8.7031960563     0.3192629237    -0.3257706542
H     11.2951218323    -4.2937315953    -1.3595838760
H      9.9566837928    -1.4489523005    -1.5480084130
C      9.7942484145     0.3581352321    -0.3667008279
C     14.2792366700    -3.2243355359    -0.0341713948
C     10.4963229762    -0.6392191754    -1.0451106776
C     13.1150121522    -3.2387121316    -0.8113755813
C      6.5461691797     3.8323841373     1.5249684665
C      7.7888561695     3.2468180777     1.7626468900
C      6.1325335007     4.0121172731     0.2004285137
H      5.9111277299     4.1489771931     2.3590042464
C      8.6118939810     2.8630648201     0.6939721249
C      6.9430472463     3.6464298678    -0.8797131764
H      8.1447524311     3.0957008969     2.7855619186
C      8.1882511948     3.0692156526    -0.6279790093
O      9.8689929922     2.3797184358     1.0158260236
C     10.4931470828     1.4056714208     0.2543502481
H      6.6167088243     3.8299434061    -1.9086941447
H      8.8403528890     2.8060218297    -1.4641484289
H     15.0030847313    -2.4076391948    -0.1290572334
C     11.8938792517    -0.5868075541    -1.0801979272
S     12.8117129106    -1.8815748662    -1.9827183226
C     11.8944821521     1.4346234624     0.2160524077
C     12.6069124994     0.4431937062    -0.4572752067
O     11.8880284402    -2.4109644750    -3.0529443393
O     14.1526605333    -1.2938618468    -2.3502999865
H     12.4197527188     2.2597339188     0.7054832115
H     13.7000980592     0.4784342373    -0.5085184034
C      3.2921468782     3.4233541241    -0.2266498206
C      3.0207381076     2.8435590153    -1.4711527693
H      3.5247425984     3.1970891107    -2.3768138508
C      2.6440476027     3.0009092035     0.9388438824
C      2.0819446142     1.8153806675    -1.5371839026
H      2.8642033503     3.4738162471     1.9018272831
C      1.7063429184     1.9704737184     0.8597800056
C      1.4141186339     1.3837866106    -0.3815516695
H      1.8385367208     1.3468713385    -2.4949148700
O      0.5611959388     0.3030664325    -0.5235874882
H      1.2021160323     1.6286698551     1.7665684675
H     -0.2187644367    -1.9969203534     0.3445318743
C     -0.5424774425     0.1336123566     0.2975439243
C     -0.8788177273    -1.1806368845     0.6511607619
C     -1.3715180682     1.1990263732     0.6808644611
C     -2.0218603733    -1.4412687836     1.4062456847
H     -1.1240182006     2.2234529245     0.3924089998
H     -7.2753151988    -3.5061662204     0.0063857479
H     -2.2694817138    -2.4649867325     1.7062190801
H     -5.3513630466    -3.1237699927     1.5660830312
C     -7.0340491160    -2.4971503825     0.3523267343
C     -2.5178879091     0.9522894257     1.4371084233
C     -5.9613632715    -2.2837998971     1.2175333240
C     -2.8299572821    -0.3651132109     1.7892781061
O     -8.8308523842    -1.7055020388    -0.9900845834
C     -7.8367377537    -1.4264409599    -0.0649700812
H     -3.1600345967     1.7806904989     1.7538589293
C     -5.6979185101    -0.9785331985     1.6467321877
S     -4.3143550266    -0.6873481089     2.8009095020
C     -7.5497836377    -0.1222085679     0.3664966200
C     -6.4798563272     0.1052879165     1.2328584452
O     -4.6235444814     0.5840653973     3.5516654260
O     -4.0750054703    -1.9797316718     3.5412165916
H     -8.1613187207     0.7183516645     0.0294144535
H     -6.2606707010     1.1181461245     1.5866609280
S      4.5090017451     4.7783828417    -0.1255024842
O      4.1558922368     5.6031607927     1.0874319299
O      4.5833730168     5.4133871261    -1.4920271495
C    -10.7500453701    -0.9460271580    -2.1578452959
C    -12.0333806860    -0.4034026156    -2.1922270951
H    -12.5590543987    -0.2753095568    -3.1444029653
C    -12.6268049773    -0.0112394059    -0.9868115506
C    -11.9640684509    -0.1465072469     0.2374833978
H    -12.4428211953     0.1745663697     1.1687099457
C    -10.6795548743    -0.6915764513     0.2590230431
C    -10.0647207897    -1.0811000807    -0.9412517797
H    -10.1585937217    -0.8084260671     1.2120366433
H    -10.2524699434    -1.2532527837    -3.0819614446
S    -14.3010413809     0.7133770484    -1.0167106039
O    -14.5135367038     1.2869534525    -2.3959962581
O    -14.4293959675     1.5872953413     0.2066086351
H    -15.5131017673    -0.4892608851     1.3433858626
C    -15.8852481894    -1.0360723653     0.4699597363
C    -16.7889258706    -2.0948407032     0.6135867769
H    -17.1202257404    -2.3903219705     1.6147385839
C    -17.2679151239    -2.7676214789    -0.5174116828
H    -17.9770393858    -3.5949995393    -0.3986506579
C    -16.8556129574    -2.3841015542    -1.7997291891
H    -17.2391057256    -2.9056962455    -2.6830348067
C    -15.9523886599    -1.3273331130    -1.9599583513
H    -15.6329122575    -1.0045960948    -2.9570906263
C    -15.4814151631    -0.6705051539    -0.8183108965
H     14.6069607844    -6.2681176615     2.3047676621
