98
polyethersulfone conf_4200 from conf_4200.cosmo (coord_rad bohr -> angstrom)
O     14.3232294262     0.7098390646     3.1059971851
H     14.9738320883     0.6538379691     0.4867031544
C     13.6042937889     1.2311654014     2.0717682146
C     14.0231356026     1.1398889131     0.7304591207
C     12.3913178664     1.8744833138     2.3799345629
C     13.2445317350     1.6883245221    -0.2884571103
H     12.0834661244     1.9505639339     3.4266306865
H      9.6181564397    -0.6874608793    -4.2298028617
H     13.5767120331     1.6320520644    -1.3307910341
H     11.1993532314     1.1024248839    -3.4599460749
C      9.3658647001    -0.0536821697    -3.3749267753
C     11.6078842179     2.4286913873     1.3709393752
C     10.2449950099     0.9418580108    -2.9477742556
C     12.0389401468     2.3185741511     0.0419425590
C      4.4417550373    -3.2830054557    -2.2709332608
C      5.2565493862    -2.4062898331    -2.9858898196
C      4.8666710149    -3.7133139229    -1.0092438822
H      3.4918375915    -3.6302182174    -2.6905492804
C      6.4821285454    -1.9784954854    -2.4549123795
C      6.0907145611    -3.3074160066    -0.4663331122
H      4.9573913570    -2.0535523258    -3.9769461739
C      6.9000303891    -2.4347139153    -1.1943828964
O      7.2731371533    -1.1843497367    -3.2664792749
C      8.1374027800    -0.2428605567    -2.7279334009
H      6.4227267137    -3.6859346199     0.5064342884
H      7.8686399009    -2.1312013468    -0.7903350833
H     10.6740094434     2.9466443304     1.6137180071
C      9.8809809700     1.7326359062    -1.8534157495
S     11.0230453497     3.0389853208    -1.2826087456
C      7.7802541892     0.5733483232    -1.6432457457
C      8.6533355061     1.5679916614    -1.2018144560
O     11.9415920445     3.3525897595    -2.4385967741
O     10.1775209923     4.1236746555    -0.6602025434
H      6.8079650465     0.4522254807    -1.1592692553
H      8.3680145588     2.2237058912    -0.3722817631
C      2.7486062862    -3.8434095998     1.0129787541
C      3.1833772305    -3.5372241097     2.3070724376
H      4.1470689519    -3.9028846871     2.6766844483
C      1.5063586878    -3.4152307465     0.5325244097
C      2.3590350797    -2.7613824982     3.1209146373
H      1.1699471367    -3.6975246394    -0.4708278344
C      0.6870813656    -2.6462207981     1.3598955666
C      1.1146228866    -2.3135598694     2.6550361824
H      2.6652269417    -2.5071780963     4.1395784736
O      0.3151123157    -1.6341205097     3.5588373857
H     -0.2964100230    -2.3297819844     1.0043706776
H     -1.9440025229    -1.1721867849     4.7002549773
C     -0.5449948135    -0.6276729684     3.1536309063
C     -1.7272361515    -0.4693296308     3.8909026878
C     -0.2312616661     0.2750759253     2.1253160136
C     -2.6017936747     0.5798926819     3.6117480659
H      0.7054089692     0.1781477157     1.5712007643
H     -4.9569610167     2.1115011887    -2.4507362869
H     -3.5167575685     0.7141712638     4.1982183179
H     -3.3298342450     2.9143079377    -0.7222218618
C     -5.1681876634     1.9781691741    -1.3859345009
C     -1.1022463139     1.3246751066     1.8307835307
C     -4.2621279750     2.4229994305    -0.4245284689
C     -2.2817762574     1.4587151300     2.5710218200
O     -7.1810604952     0.8931901708    -2.0216750204
C     -6.3774373013     1.3786818891    -1.0046632492
H     -0.8522774092     2.0462063855     1.0456511553
C     -4.5797673130     2.2434715672     0.9265659029
S     -3.4142856101     2.8394123035     2.1970175676
C     -6.6743680753     1.1964193496     0.3556320325
C     -5.7752883401     1.6377806850     1.3273924067
O     -2.5884464984     3.9323589177     1.5647415876
O     -4.2164707764     3.1070149483     3.4464000796
H     -7.6062128737     0.7141410374     0.6598441786
H     -6.0075650225     1.5148853884     2.3907488703
S      3.8129745648    -4.8620685783    -0.0627721544
O      2.9112996507    -5.5561402578    -1.0534640031
O      4.7208578196    -5.6600499580     0.8402410162
C     -9.2123850649    -0.2410060552    -2.5074927050
C    -10.6047482600    -0.3186100881    -2.5077999552
H    -11.1166799327    -1.1512582955    -3.0016124455
C    -11.3318603714     0.6918976190    -1.8696677894
C    -10.7001142949     1.7814832349    -1.2603799044
H    -11.2886394708     2.5809899329    -0.7983903236
C     -9.3066610299     1.8511099393    -1.2743227213
C     -8.5597390292     0.8376186658    -1.8940624578
H     -8.8040519498     2.7116368795    -0.8262641618
H     -8.6132469092    -1.0113343438    -3.0008911876
S    -13.1550568396     0.6054379460    -1.8639858327
O    -13.5627607030    -0.2508143776    -3.0374226558
O    -13.6671997976     2.0183422092    -1.7299568711
H    -13.7846830857     1.5290982272     0.8264973199
C    -13.8716848322     0.4369711234     0.8264246139
C    -14.2413714008    -0.2568090778     1.9841183627
H    -14.4343368575     0.2983159034     2.9082067839
C    -14.3666989367    -1.6513954644     1.9572303931
H    -14.6584263602    -2.1890867369     2.8667940420
C    -14.1323410475    -2.3631541008     0.7740335298
H    -14.2403380420    -3.4527629059     0.7535542131
C    -13.7617048540    -1.6839421425    -0.3919592663
H    -13.5904060388    -2.2245758513    -1.3294240785
C    -13.6376210104    -0.2914006494    -0.3444138678
H     15.1310364722     0.2807465388     2.7627549673
