98
polyethersulfone conf_5800 from conf_5800.cosmo (coord_rad bohr -> angstrom)
O     13.8944912395    -0.9231606034     3.0739992376
H     13.7877462672    -0.4126068333     0.5472147388
C     13.2303030560     0.1493808734     2.5570535383
C     13.2393114052     0.3093989276     1.1588453103
C     12.5407951435     1.0785659284     3.3595067772
C     12.5849538194     1.3855615634     0.5648055312
H     12.5395074601     0.9662043192     4.4486998994
H      7.5237839335     1.7971342640    -2.2731245540
H     12.6102200558     1.5201557448    -0.5218172451
H      9.8543903199     2.4985545554    -1.7536683895
C      7.7583594868     2.2136651602    -1.2905278311
C     11.8800217599     2.1586455117     2.7748209014
C      9.0653457945     2.6090210526    -1.0026401485
C     11.9011268578     2.2960374587     1.3821775763
C      3.3520971271     0.0337650454    -2.7977503049
C      3.8487243874     1.1195967981    -2.0784889973
C      4.0556665405    -1.1750793033    -2.7538881783
H      2.4395457082     0.1311584894    -3.3951172331
C      5.0362949557     1.0050261968    -1.3412543690
C      5.2364239001    -1.3131359360    -2.0162711101
H      3.3298183319     2.0821388236    -2.0983813400
C      5.7237837787    -0.2187867903    -1.3004784690
O      5.4139377894     2.1053548179    -0.5915802995
C      6.7463703790     2.3874341088    -0.3342976137
H      5.7758294994    -2.2663723705    -2.0026636034
H      6.6404210134    -0.3200642899    -0.7147219208
H     11.3594484237     2.8932708174     3.3985632469
C      9.3453370622     3.1750993290     0.2456389213
S     11.0513870259     3.7092077108     0.6171617899
C      7.0456023687     2.9649942098     0.9076550027
C      8.3459659782     3.3719560115     1.2047317730
O     11.7251900915     3.9777208731    -0.7066715209
O     10.9543209174     4.7950212366     1.6612953173
H      6.2396505835     3.1085080285     1.6327596716
H      8.5770509983     3.8406669190     2.1670930709
C      2.3248965906    -3.5418821292    -2.6053964788
C      2.8510816386    -4.6040598370    -1.8623478006
H      3.9113026029    -4.8677325850    -1.9356046900
C      0.9672558585    -3.2073419541    -2.5518825820
C      1.9954913442    -5.3241649564    -1.0297152100
H      0.5673509510    -2.3973706680    -3.1712449283
C      0.1200195648    -3.9403172549    -1.7201350130
C      0.6338317430    -4.9985653216    -0.9540060357
H      2.3724804377    -6.1635108730    -0.4386376052
O     -0.1662399846    -5.8248827030    -0.1829317527
H     -0.9463999031    -3.7044645416    -1.6914252570
H     -0.4330073763    -3.4025922250     1.0164963122
C     -1.2702335673    -5.3373489306     0.4961817653
C     -1.2917469431    -4.0723156480     1.1046231573
C     -2.3570854000    -6.2096614421     0.6500909335
C     -2.3998879305    -3.6798572467     1.8561894135
H     -2.3129445079    -7.1977291297     0.1833940118
H     -8.6611090009    -3.7960549676    -0.2504113358
H     -2.4125913959    -2.7036864312     2.3527933643
H     -7.0928401408    -5.0128114286     1.2783153621
C     -7.8941446516    -3.2499642238     0.3061524854
C     -3.4672935210    -5.8321315850     1.4043757260
C     -7.0201088618    -3.9269922110     1.1550122444
C     -3.4785840393    -4.5612409689     1.9888222081
O     -8.6744992296    -1.2741163271    -0.7523658878
C     -7.8246336029    -1.8554031596     0.1726178189
H     -4.3095035770    -6.5185133906     1.5402528117
C     -6.0630041569    -3.1847170232     1.8570424353
S     -4.9226337482    -4.0558077262     2.9826872550
C     -6.8515718334    -1.1285057828     0.8771206388
C     -5.9703078999    -1.7953142761     1.7294115245
O     -4.4385952399    -3.0443557873     3.9921608909
O     -5.6146368308    -5.3191812266     3.4308680375
H     -6.7801071739    -0.0440742183     0.7658964681
H     -5.2177929758    -1.2356475928     2.2950921809
S      3.4309099762    -2.5985967265    -3.7084966918
O      2.5786995897    -2.0446503870    -4.8235630909
O      4.6138830871    -3.4843883095    -4.0119443820
C     -9.3201377083     0.7827943256    -1.7538622635
C     -9.8824722090     2.0571432922    -1.6859881949
H    -10.0337079366     2.6493258863    -2.5946127908
C    -10.2540047111     2.5594240061    -0.4344459854
C    -10.0995486902     1.8087793930     0.7362286659
H    -10.4312072480     2.2054910245     1.7014960362
C     -9.5425069767     0.5322709749     0.6533459112
C     -9.1476664841     0.0184221565    -0.5913734865
H     -9.4430512549    -0.0739796712     1.5569278433
H     -9.0228814081     0.3575238349    -2.7164717543
S    -10.9945282906     4.2245005074    -0.3304857946
O    -11.8625637126     4.2494215649     0.9033871368
O    -11.5784071296     4.5354926446    -1.6864718781
H     -9.2953347547     5.7076595223    -2.1729213020
C     -8.9724955880     5.9577489585    -1.1561676113
C     -7.9239056727     6.8574160715    -0.9342589404
H     -7.4090098724     7.3086631462    -1.7890096821
C     -7.5397112474     7.1798072591     0.3733983698
H     -6.7187364588     7.8866085482     0.5405940933
C     -8.2036541540     6.6138998322     1.4689052305
H     -7.9075073929     6.8747807396     2.4904746664
C     -9.2542827734     5.7125990031     1.2636285432
H     -9.7941480672     5.2729699136     2.1095620470
C     -9.6208740161     5.3996163949    -0.0493146519
H     13.8113423323    -0.9263731311     4.0475416409
