98
polyethersulfone conf_8860 from conf_8860.cosmo (coord_rad bohr -> angstrom)
O    -13.7338770791    -6.3973178011     2.9461620397
H    -11.4737565884    -7.3980767482     2.2079904916
C    -12.9844071172    -5.8791216086     1.9321389129
C    -11.7635198538    -6.5127087687     1.6349992018
C    -13.3794196947    -4.7473377427     1.1933304894
C    -10.9492643291    -6.0361772655     0.6108151040
H    -14.3346610553    -4.2577912072     1.4112867313
H     -6.1285849168    -2.8230628901     0.7920893477
H    -10.0084396412    -6.5415312265     0.3681070568
H     -7.6616616457    -4.5288600686    -0.2161236274
C     -7.0964570918    -2.5237828650     0.3800247055
C    -12.5703528825    -4.2601451364     0.1670067256
C     -7.9512808394    -3.4733176999    -0.1786101665
C    -11.3582577498    -4.9042338851    -0.1073714887
C     -5.8057629108     3.2701027711     1.2470214114
C     -6.0969062593     1.9541427080     1.6027051189
C     -5.8054749088     3.6119153932    -0.1100601275
H     -5.5966811784     4.0214158471     2.0158090892
C     -6.3969170675     0.9991856251     0.6201765148
C     -6.0928220587     2.6725288436    -1.1059325958
H     -6.1160103325     1.6550633374     2.6544733595
C     -6.3829668084     1.3583769580    -0.7367228274
O     -6.5890627219    -0.3015392215     1.0526776761
C     -7.4514665955    -1.1675343726     0.3990815335
H     -6.0946315794     2.9628981580    -2.1618439274
H     -6.5997740729     0.6156993608    -1.5081279671
H    -12.8839812807    -3.3901303940    -0.4200016436
C     -9.1747568408    -3.0442184156    -0.7053949255
S    -10.3016756971    -4.2752251397    -1.4467630415
C     -8.6857419209    -0.7567494804    -0.1271891957
C     -9.5503961510    -1.6971280978    -0.6892930366
O    -11.1905807183    -3.5302377552    -2.4128748604
O     -9.4475721886    -5.4252007229    -1.9227834659
H     -8.9755370691     0.2964538415    -0.1011731201
H    -10.5091416118    -1.3826809409    -1.1147209780
C     -3.6328531007     5.4414970945    -0.8364236986
C     -2.8153085390     5.7610729364     0.2533679704
H     -3.2497954232     5.9584260419     1.2389063246
C     -3.1068763254     5.2325338937    -2.1155678376
C     -1.4367434830     5.8554894389     0.0605169049
H     -3.7648181891     5.0067694449    -2.9612712562
C     -1.7266081505     5.3232638113    -2.2931744908
C     -0.8894166839     5.6336033476    -1.2124668685
H     -0.7912579735     6.1320016525     0.8977244130
O      0.4578513522     5.8057855196    -1.4882058094
H     -1.2823370973     5.1709383150    -3.2806950312
H      2.7167722732     7.0112869690    -1.2474466667
C      1.4367801581     5.4044859627    -0.5959201284
C      2.6393289094     6.1263008241    -0.6094953225
C      1.3081321651     4.2665424929     0.2164299563
C      3.7089513928     5.7401117958     0.1964224339
H      0.3800169420     3.6902628922     0.2205574531
H      8.6997065613     3.0324171417    -0.9764335598
H      4.6377413444     6.3203290600     0.2041850421
H      7.2635397958     4.5885869908     0.3637883342
C      7.8563931852     2.6476194743    -0.3961440918
C      2.3726528101     3.8691588570     1.0267280230
C      7.0555903119     3.5136105204     0.3471606934
C      3.5601344960     4.6075014985     1.0055920093
O      8.3955527142     0.4880375488    -1.2236492409
C      7.6100376801     1.2671858633    -0.3904526413
H      2.2776497013     2.9909991610     1.6743933205
C      5.9953800286     2.9768260825     1.0857308606
S      4.9466963586     4.0955690338     2.0748632938
C      6.5360080785     0.7478115757     0.3489038751
C      5.7273312956     1.6037633552     1.0976732521
O      4.3603742276     3.2780550350     3.1991599431
O      5.7655821194     5.3286543412     2.3661448983
H      6.3283611617    -0.3248262203     0.3439285350
H      4.8970228871     1.2026405154     1.6884723783
S     -5.4379808488     5.3323079591    -0.5917384007
O     -6.0821640842     5.5656624340    -1.9357682554
O     -5.7808261888     6.2080046462     0.5879945031
C      8.9271458645    -1.7070374988    -1.9534879624
C      9.3673565789    -3.0081879688    -1.7156387700
H      9.4813224212    -3.7179449164    -2.5418175552
C      9.6414597715    -3.3913735977    -0.3980293213
C      9.4805735166    -2.5076638773     0.6742854582
H      9.6929311603    -2.8303246394     1.6990581977
C      9.0396693735    -1.2077398454     0.4228586513
C      8.7504832318    -0.8083747377    -0.8913083330
H      8.9203612057    -0.5079309658     1.2532523571
H      8.6938909304    -1.3772841225    -2.9697809574
S     10.2061792071    -5.0953443570    -0.0698823183
O      9.7209444003    -5.9527317636    -1.2126794891
O      9.8250870857    -5.4241539269     1.3524892847
H     12.0662390246    -5.5142068551    -2.2735150523
C     12.6612001942    -5.3037752208    -1.3778796682
C     14.0594936330    -5.2856492688    -1.4298719571
H     14.5671659150    -5.4713367988    -2.3823118066
C     14.8024797125    -5.0354721565    -0.2693552248
H     15.8975596503    -5.0245230291    -0.3162443887
C     14.1566998799    -4.8095896616     0.9526007831
H     14.7401245748    -4.6234541549     1.8605122965
C     12.7590833083    -4.8244362529     1.0210074088
H     12.2391745709    -4.6648628958     1.9721032047
C     12.0340282753    -5.0717146411    -0.1492464956
H    -14.5449850641    -5.8653936114     3.0626143466
