38
pe config_270 from config_270.mcos (coord_rad bohr -> angstrom)
C     -6.5043593267    -0.6730030078    -0.1944663319
C     -5.2178189825    -0.3084706376     0.5626294377
H     -6.7587815682     0.0987871133    -0.9431321688
H     -7.3651291236    -0.7709557573     0.4897417741
H     -6.3930818619    -1.6325252954    -0.7309616932
C     -3.9948873093    -0.1630080632    -0.3593990423
H     -5.0061396253    -1.0805023739     1.3281868977
H     -5.3691620346     0.6380546058     1.1177100598
C     -2.7013697094     0.2024541496     0.3886216692
H     -4.2060042136     0.6102690766    -1.1257281973
H     -3.8420138621    -1.1106848537    -0.9146742232
C     -1.4790372069     0.3480089319    -0.5340765766
H     -2.4914001018    -0.5706772767     1.1551899039
H     -2.8551174447     1.1499102367     0.9436633505
C     -0.1861910112     0.7182814462     0.2136762883
H     -1.6902283730     1.1189876571    -1.3025789736
H     -1.3229145793    -0.6004621723    -1.0868046396
C      1.0286414262     0.8718858944    -0.7191872077
H      0.0196624459    -0.0532791142     0.9810328641
H     -0.3407923753     1.6670533973     0.7666527487
C      2.3290761362     1.3049496928    -0.0088474156
H      0.7851400736     1.6233224454    -1.4961201131
H      1.1928538552    -0.0785195466    -1.2638119774
C      2.9234712526     0.2743941548     0.9770686564
H      2.1352329069     2.2474591337     0.5403774740
H      3.0866042485     1.5588158369    -0.7746389563
C      3.4006154413    -1.0492139616     0.3390937014
H      2.1761275705     0.0390145310     1.7583300288
H      3.7672795525     0.7478606011     1.5140952580
C      4.5811823883    -0.9206155636    -0.6474734758
H      2.5516986750    -1.5344537946    -0.1793637112
H      3.6921502480    -1.7463134149     1.1495994164
C      5.8962942682    -0.4641245563     0.0057484433
H      4.3137737382    -0.2252378555    -1.4657062880
H      4.7410477573    -1.9026620950    -1.1320357440
H      6.7181162858    -0.4293939273    -0.7305622526
H      6.1983716414    -1.1563562852     0.8126568991
H      5.8090019636     0.5432582501     0.4485533850
