38
pe config_3190 from config_3190.mcos (coord_rad bohr -> angstrom)
C     -5.3696074102     2.0163092638     0.1845781535
C     -5.4653031296     0.5750278258    -0.3435429361
H     -4.4253957974     2.5035735275    -0.1138351800
H     -5.4200887598     2.0361005108     1.2883751767
H     -6.1966982283     2.6393542526    -0.1985584416
C     -4.3760438266    -0.3711020185     0.2030422811
H     -5.4194137720     0.5802289588    -1.4503560731
H     -6.4586001924     0.1619983170    -0.0839327277
C     -2.9503790608    -0.0493801105    -0.2808482771
H     -4.6230727686    -1.4106749672    -0.0899607355
H     -4.4002874849    -0.3520570050     1.3115389266
C     -1.8950292603    -1.0362312490     0.2484649488
H     -2.6688701200     0.9771487089     0.0243495008
H     -2.9349250761    -0.0553583542    -1.3895939871
C     -0.4691406370    -0.7340239999    -0.2448613400
H     -2.1747342042    -2.0666332809    -0.0510078951
H     -1.9083923097    -1.0257539495     1.3573591818
C      0.5771096671    -1.7345804126     0.2791182115
H     -0.1938326742     0.2953472092     0.0563487188
H     -0.4550917766    -0.7437408871    -1.3536108178
C      2.0093622800    -1.4955670862    -0.2420483693
H      0.2597217285    -2.7579341099    -0.0029419206
H      0.5834195271    -1.7126557029     1.3877194085
C      2.6746248642    -0.2099138017     0.2823269399
H      1.9959105075    -1.4759997755    -1.3506133481
H      2.6418618802    -2.3606237503     0.0391901102
C      4.1197056988    -0.0306672316    -0.2146772156
H      2.6673743521    -0.2253637048     1.3910944019
H      2.0791151164     0.6746462995    -0.0160892370
C      4.7979975254     1.2447171540     0.3146295028
H      4.1265570018    -0.0139057762    -1.3235901322
H      4.7211299659    -0.9140229050     0.0817289442
C      6.2409598654     1.4132804280    -0.1860054029
H      4.7887708436     1.2280843651     1.4221121450
H      4.1967685813     2.1264629771     0.0179743423
H      6.7033376832     2.3347457300     0.2086872842
H      6.2767209674     1.4674898807    -1.2890463853
H      6.8731755501     0.5623308616     0.1255997601
