38
pe config_7700 from config_7700.mcos (coord_rad bohr -> angstrom)
C     -4.2496914710     2.4433367049    -0.2717175501
C     -4.1984614125     0.9387197815     0.0364197009
H     -3.7302678854     3.0277507203     0.5089790043
H     -5.2887498727     2.8116953037    -0.3289031150
H     -3.7611965524     2.6700562320    -1.2365448976
C     -2.7641899052     0.3885333151     0.1264062967
H     -4.7538171741     0.3810712781    -0.7431680239
H     -4.7254036892     0.7364491362     0.9896017161
C     -2.7117589026    -1.1155770338     0.4509277117
H     -2.2064457410     0.9467928671     0.9055767506
H     -2.2411736455     0.5898584102    -0.8287726451
C     -1.2876515272    -1.6912084513     0.5986139779
H     -3.2533257456    -1.6794041116    -0.3355111995
H     -3.2694265054    -1.2929526488     1.3917869262
C     -0.4891102349    -1.7451755115    -0.7176628204
H     -1.3561481617    -2.7185376028     1.0082435647
H     -0.7368617373    -1.0987160479     1.3551301188
C      0.8823224536    -2.4442016997    -0.5918169101
H     -0.3523932583    -0.7247085951    -1.1215054971
H     -1.0942901080    -2.2876441448    -1.4709676740
C      1.9289231413    -1.7092937840     0.2737480972
H      1.3046761733    -2.5923240446    -1.6052895716
H      0.7237361496    -3.4596796322    -0.1782831846
C      2.4090177035    -0.3689593126    -0.3121078826
H      2.8067565933    -2.3729067631     0.4038559972
H      1.5276290705    -1.5408963003     1.2922169396
C      3.5117667504     0.2918251666     0.5359214073
H      1.5520350016     0.3227143286    -0.4145869324
H      2.7930134464    -0.5374875042    -1.3388869451
C      4.0614113266     1.6104713173    -0.0464931325
H      4.3474781143    -0.4264823207     0.6513190682
H      3.1258040249     0.4782533056     1.5587007907
C      3.0498931557     2.7689559083    -0.0467999325
H      4.4197462216     1.4291162457    -1.0788633956
H      4.9535055741     1.9119404722     0.5349193844
H      2.6793032142     2.9695414644     0.9748402841
H      2.1737420544     2.5518285674    -0.6817692464
H      3.5072479725     3.7001129802    -0.4247519981
