38
pe config_1990 from config_1990.mcos (coord_rad bohr -> angstrom)
C      2.9426726275     2.6211825676    -0.4026041843
C      3.4918027602     1.6489002264     0.6553097718
H      3.5097149524     3.5685936369    -0.4095425783
H      1.8842090042     2.8669377561    -0.2014491448
H      2.9981705148     2.1967657911    -1.4197849278
C      2.7042369602     0.3261586707     0.7669274316
H      3.4879051041     2.1502878372     1.6419796601
H      4.5528664451     1.4198101042     0.4344458659
C      2.8225561918    -0.5767809411    -0.4779766558
H      1.6431093129     0.5561962759     0.9796015550
H      3.0750103702    -0.2402811903     1.6432686240
C      2.2039903003    -1.9904886069    -0.3348696203
H      3.9007787544    -0.6843599207    -0.7089591314
H      2.3759379121    -0.0765645197    -1.3592495018
C      0.7134982959    -2.1289468460    -0.7143305145
H      2.3561687251    -2.3564582330     0.7006509689
H      2.7744334724    -2.6842818512    -0.9813151163
C     -0.2941685240    -1.4352723829     0.2209285225
H      0.4649426186    -3.2091458922    -0.7507775698
H      0.5700010938    -1.7521684537    -1.7469354585
C     -1.7545650161    -1.7671517192    -0.1382447661
H     -0.1429189673    -0.3405846932     0.1894100789
H     -0.0971417981    -1.7446589730     1.2672810625
C     -2.8020857892    -1.1508859614     0.8138851047
H     -1.8770766988    -2.8684187597    -0.1319613954
H     -1.9562952807    -1.4502914099    -1.1801469937
C     -2.9102085990     0.3888642700     0.7807449639
H     -2.5714426976    -1.4731238666     1.8483648793
H     -3.7965385234    -1.5789278326     0.5788113176
C     -3.4447883333     0.9600557965    -0.5448795442
H     -1.9252545512     0.8439751610     1.0036067908
H     -3.5818402851     0.7130471142     1.6004627208
C     -3.5966773520     2.4892575154    -0.5147991445
H     -4.4237224425     0.4925560579    -0.7695616746
H     -2.7732416034     0.6758114234    -1.3769710560
H     -3.9889315942     2.8782594654    -1.4706082958
H     -2.6260440102     2.9825976370    -0.3264606596
H     -4.2903809608     2.8050718022     0.2852917918
