38
pe config_3410 from config_3410.mcos (coord_rad bohr -> angstrom)
C     -7.0754484812    -0.3092372770    -0.0000004815
C     -5.7819172887     0.5202708223    -0.0000003957
H     -7.1318203922    -0.9601011260     0.8911102394
H     -7.1318202625    -0.9601011709    -0.8911111753
H     -7.9717940297     0.3351264515    -0.0000005669
C     -4.5095407767    -0.3445480909    -0.0000000000
H     -5.7683757362     1.1868400324     0.8845461100
H     -5.7683753856     1.1868397399    -0.8845471141
C     -3.2086988171     0.4764970183     0.0000000472
H     -4.5219101808    -1.0115486717    -0.8858475372
H     -4.5219104825    -1.0115482944     0.8858478300
C     -1.9367542448    -0.3887180496     0.0000003160
H     -3.1974855766     1.1434380174     0.8857412156
H     -3.1974853645     1.1434377799    -0.8857412920
C     -0.6359653248     0.4326306732     0.0000002190
H     -1.9480737060    -1.0555686572    -0.8857779442
H     -1.9480738393    -1.0555682201     0.8857789039
C      0.6359653252    -0.4326307392     0.0000006289
H     -0.6246093375     1.0995137331     0.8857655779
H     -0.6246091712     1.0995132557    -0.8857654941
C      1.9367542438     0.3887179933     0.0000006823
H      0.6246094070    -1.0995137523    -0.8857647664
H      0.6246091074    -1.0995133754     0.8857663038
C      3.2086988254    -0.4764970484     0.0000001337
H      1.9480739280     1.0555680887     0.8857793278
H      1.9480735927     1.0555686875    -0.8857775165
C      4.5095407687     0.3445481014     0.0000000659
H      3.1974853172    -1.1434376620    -0.8857413112
H      3.1974856868    -1.1434381618     0.8857412128
C      5.7819172969    -0.5202707756    -0.0000005445
H      4.5219105410     1.0115481965     0.8858479708
H      4.5219100722     1.0115488047    -0.8858473926
C      7.0754484746     0.3092373539    -0.0000005637
H      5.7683753714    -1.1868395509    -0.8845473704
H      5.7683758050    -1.1868401368     0.8845458468
H      7.1318200847     0.9601015306    -0.8911110632
H      7.9717940309    -0.3351263575    -0.0000009918
H      7.1318205127     0.9601009287     0.8911103506
