38
pe config_9860 from config_9860.mcos (coord_rad bohr -> angstrom)
C      3.1949104218     2.6779459404     0.5158378128
C      4.1812821525     1.6323250148    -0.0311767629
H      2.2449985533     2.6819135159    -0.0457319228
H      3.6168806664     3.6965063429     0.4566572338
H      2.9541375932     2.4771155456     1.5755633603
C      3.6811937739     0.1760164424     0.0726504907
H      5.1386298905     1.7197625687     0.5170072231
H      4.4155475070     1.8599074321    -1.0896831759
C      2.4867324569    -0.1492446237    -0.8437514761
H      3.4203586609    -0.0392607000     1.1280095442
H      4.5130008967    -0.5101784427    -0.1821567033
C      2.0507662088    -1.6308803841    -0.7905982454
H      2.7669362634     0.1065222538    -1.8851673800
H      1.6270981786     0.4990892209    -0.5916889105
C      1.3409477538    -2.0722244301     0.5184104599
H      2.9487059229    -2.2583364085    -0.9524285724
H      1.3822066616    -1.8426553165    -1.6478671517
C     -0.1993650782    -2.1235915712     0.4349809812
H      1.6370822247    -1.4049241850     1.3515457903
H      1.6989740159    -3.0785605733     0.8051561920
C     -0.8924609512    -0.7679450707     0.2107809097
H     -0.5915267750    -2.5709608135     1.3704117456
H     -0.4898131662    -2.8172074969    -0.3794761370
C     -2.4278270615    -0.8696196085     0.1998342047
H     -0.5543718988    -0.3258565865    -0.7467512493
H     -0.5764264287    -0.0605049322     1.0038294608
C     -3.1310339749     0.4798263953    -0.0243407570
H     -2.7720534694    -1.3070329849     1.1588805736
H     -2.7416000203    -1.5811255886    -0.5907938812
C     -4.6661527836     0.3785555249    -0.0346021847
H     -2.7879989883     0.9169228538    -0.9840346906
H     -2.8177251430     1.1919577703     0.7658995057
C     -5.3584586175     1.7319863681    -0.2588019691
H     -5.0079465150    -0.0591716993     0.9237535462
H     -4.9782871960    -0.3333978208    -0.8236786742
H     -5.0615175348     2.1763916095    -1.2258524649
H     -5.0907153467     2.4530008017     0.5344770500
H     -6.4577803573     1.6311836481    -0.2612210942
