38
pe config_2890 from config_2890.mcos (coord_rad bohr -> angstrom)
C     -5.6842375078     0.5507282155    -0.6790888338
C     -4.9228726593     0.8126101949     0.6312817909
H     -5.4032515079    -0.4147558240    -1.1339460297
H     -5.4750390805     1.3419449046    -1.4217434379
H     -6.7753648209     0.5303045935    -0.5115370439
C     -3.3931788264     0.9201948320     0.4619139681
H     -5.1518189641     0.0115056334     1.3613615186
H     -5.2977126853     1.7503756973     1.0837854818
C     -2.7016409702    -0.3947323156     0.0581409239
H     -2.9506235181     1.2753420669     1.4135734854
H     -3.1642152197     1.7009507423    -0.2914616866
C     -1.1725333091    -0.2629272500    -0.0578321248
H     -3.1058227658    -0.7556927200    -0.9076051560
H     -2.9474613324    -1.1764677018     0.8053695763
C     -0.4805530106    -1.5775841413    -0.4624026304
H     -0.7680554782     0.0978815346     0.9078019489
H     -0.9270066736     0.5190909633    -0.8047857852
C      1.0492687241    -1.4709412099    -0.6342634722
H     -0.9241958077    -1.9319993642    -1.4138478224
H     -0.7094666383    -2.3589208033     0.2903916518
C      1.8171965786    -1.2387686342     0.6808698070
H      1.2745300222    -0.6613111322    -1.3557734198
H      1.4249349342    -2.4044810276    -1.0981429361
C      3.3534789028    -1.2652559377     0.5236749601
H      1.5219982937    -2.0272086230     1.4014065905
H      1.5051351224    -0.2818663141     1.1391815415
C      3.9592110378    -0.1053382566    -0.2960367608
H      3.6435050496    -2.2262567916     0.0550492079
H      3.8180472377    -1.2662156350     1.5295126817
C      3.8245130801     1.2781501221     0.3650140512
H      3.5023153561    -0.0738128338    -1.3046298756
H      5.0349968680    -0.3139143708    -0.4611535678
C      4.4921291857     2.3953458586    -0.4526973308
H      4.2724401022     1.2385658604     1.3775234352
H      2.7559073367     1.5232528858     0.5139049708
H      4.3926862696     3.3770403669     0.0423592306
H      4.0383651581     2.4799489090    -1.4566979585
H      5.5704853887     2.1978101173    -0.5913426926
