38
pe config_1720 from config_1720.mcos (coord_rad bohr -> angstrom)
C      2.7823668523     2.6116138247     0.3896151364
C      3.7375243619     1.5956311181    -0.2592185984
H      2.3849910755     2.2473836980     1.3526653253
H      1.9197216922     2.8188220295    -0.2691347382
H      3.2912315197     3.5717024642     0.5853011906
C      3.0785118438     0.2467315902    -0.6166265616
H      4.5971393540     1.4109078043     0.4147871737
H      4.1632478810     2.0390980286    -1.1794694500
C      2.6541208586    -0.5896166887     0.6054045007
H      3.7886671402    -0.3517570540    -1.2212152004
H      2.2050176193     0.4360817620    -1.2708884448
C      2.1258406761    -1.9967192953     0.2502826676
H      1.8945609958    -0.0429425255     1.1948595973
H      3.5307546543    -0.7001791998     1.2742702401
C      0.7887852776    -2.0339081266    -0.5212613128
H      2.0103642666    -2.5833456804     1.1830382176
H      2.8981544912    -2.5228700515    -0.3447829200
C     -0.4251956182    -1.5392090004     0.2862009044
H      0.5973649289    -3.0769525716    -0.8427836747
H      0.8729104527    -1.4439691962    -1.4548379111
C     -1.7500036219    -1.6765593870    -0.4864240781
H     -0.2724347609    -0.4845762389     0.5834553407
H     -0.4939342908    -2.1174153638     1.2302379481
C     -3.0025523966    -1.2690647636     0.3193026050
H     -1.8644900414    -2.7315588710    -0.8054231193
H     -1.6914711177    -1.0864136495    -1.4217576051
C     -3.1097218665     0.2295941349     0.6743861318
H     -3.0287282699    -1.8628523809     1.2541116407
H     -3.9069655176    -1.5617388456    -0.2498231869
C     -3.3131934477     1.1565346270    -0.5374957036
H     -2.2105697862     0.5529317901     1.2346056990
H     -3.9612330392     0.3672591440     1.3701518262
C     -3.4811203429     2.6308421567    -0.1366729422
H     -4.2048017261     0.8199453954    -1.1023635747
H     -2.4581214932     1.0620517161    -1.2332437678
H     -2.5893044483     3.0022601267     0.3996625155
H     -4.3505650251     2.7653651912     0.5319323117
H     -3.6336820146     3.2775413391    -1.0183119293
