38
pe config_1010 from config_1010.mcos (coord_rad bohr -> angstrom)
C      4.0025458162     2.4931885592    -0.8524496261
C      3.3351765605     1.5449628093     0.1565395671
H      3.7253401564     2.2308157433    -1.8894781469
H      5.1039683014     2.4411270361    -0.7800124199
H      3.7051404588     3.5427052524    -0.6828914559
C      3.7426138344     0.0749771567    -0.0489875108
H      2.2360216701     1.6464820561     0.0810300235
H      3.5998059742     1.8514444361     1.1877735312
C      3.1441516180    -0.9038933474     0.9843474289
H      4.8476245046     0.0055542482    -0.0016614547
H      3.4668187635    -0.2399630895    -1.0744861231
C      1.6107014554    -1.0789070925     0.9266827328
H      3.4290299901    -0.5628083065     1.9992438016
H      3.6176774295    -1.8969091369     0.8542878088
C      1.1060581944    -1.7633452937    -0.3578945438
H      1.1179858386    -0.0968042302     1.0522373838
H      1.2919799159    -1.6881914517     1.7957011180
C     -0.4075179197    -2.0640850919    -0.3611887584
H      1.6616147186    -2.7129521510    -0.4899425323
H      1.3507184784    -1.1427265547    -1.2420469510
C     -1.3074819264    -0.8159619195    -0.4252426985
H     -0.6637882366    -2.6549431580     0.5415921707
H     -0.6423322446    -2.7137383249    -1.2275902468
C     -2.8061434524    -1.1635455673    -0.4949161364
H     -1.0324996253    -0.2159807523    -1.3164157162
H     -1.1136504238    -0.1706359149     0.4515820192
C     -3.7416633239     0.0573237610    -0.6156784229
H     -3.0890035417    -1.7519018262     0.4015456421
H     -2.9739094869    -1.8319695069    -1.3624320099
C     -3.8003036691     0.9450230528     0.6409548689
H     -4.7663216310    -0.2965787191    -0.8449887170
H     -3.4304522735     0.6722361914    -1.4845399972
C     -4.7838568592     2.1172479061     0.4956636847
H     -2.7930730922     1.3397570243     0.8717064486
H     -4.0905806780     0.3204379431     1.5085609110
H     -4.4956762709     2.7781960027    -0.3417288960
H     -4.8196358282     2.7342011185     1.4104537310
H     -5.8084848369     1.7552364743     0.2955165633
