38
pe config_4300 from config_4300.mcos (coord_rad bohr -> angstrom)
C      6.9675973042     0.5187035967     0.0802733089
C      5.7169900696    -0.3158917086    -0.2371609305
H      6.9609785578     1.4739468134    -0.4750121605
H      7.8939064005    -0.0178425852    -0.1893804225
H      7.0228958732     0.7605734278     1.1569941770
C      4.4046221011     0.4003299249     0.1255021289
H      5.7667605515    -1.2803542447     0.3053011280
H      5.7054703877    -0.5722284643    -1.3146968004
C      3.1461693176    -0.4264740738    -0.1891917460
H      4.3539404918     1.3658864540    -0.4175597516
H      4.4147651341     0.6560426037     1.2045187320
C      1.8342648237     0.2904571573     0.1731778760
H      3.1977476241    -1.3917698935     0.3539685840
H      3.1373579520    -0.6822930702    -1.2680615694
C      0.5758965802    -0.5363889686    -0.1423053388
H      1.7830181942     1.2558870285    -0.3697488465
H      1.8429173491     0.5458604017     1.2521186619
C     -0.7361294077     0.1803907343     0.2199002274
H      0.6272265526    -1.5018261792     0.4006347166
H      0.5674131653    -0.7918743059    -1.2212650499
C     -1.9944439945    -0.6467317533    -0.0951232478
H     -0.7873855753     1.1458508021    -0.3230227338
H     -0.7276031411     0.4360023994     1.2987897151
C     -3.3069948593     0.0691570357     0.2688480404
H     -1.9427097264    -1.6127356414     0.4468059298
H     -2.0037164934    -0.9013503301    -1.1743668012
C     -4.5595985515    -0.7720694208    -0.0372021386
H     -3.3547410013     1.0323497244    -0.2753105904
H     -3.2985256819     0.3256280935     1.3476439615
C     -5.8918995744    -0.1021991295     0.3583926595
H     -4.4734034768    -1.7410709903     0.4930800236
H     -4.5820298156    -1.0163160023    -1.1186198876
C     -6.2439354797     1.1402234903    -0.4769971177
H     -5.8572513737     0.1686739940     1.4319803187
H     -6.7066473790    -0.8445891362     0.2599250643
H     -5.4995269921     1.9455050661    -0.3530054736
H     -7.2262466641     1.5528631553    -0.1874435513
H     -6.2898408896     0.8921395714    -1.5529497033
