38
pe config_7520 from config_7520.mcos (coord_rad bohr -> angstrom)
C     -5.5883561580     1.8379153060    -0.0391851335
C     -4.5591469080     0.8601351192     0.5491471155
H     -6.3067936910     2.1811549630     0.7254752756
H     -6.1671131238     1.3654380094    -0.8532442694
H     -5.0940898297     2.7326441733    -0.4588247889
C     -3.5403327405     0.3586844559    -0.4888396570
H     -5.0836683107    -0.0089158296     0.9923600181
H     -4.0183236993     1.3479606012     1.3836628575
C     -2.5075386924    -0.6247238447     0.0890319419
H     -3.0117758371     1.2278600282    -0.9304924112
H     -4.0811402166    -0.1281577454    -1.3257398580
C     -1.4989964854    -1.1276225970    -0.9592941276
H     -3.0356822977    -1.4943004019     0.5302978564
H     -1.9730167038    -0.1343155485     0.9259334814
C     -0.4893994599    -2.1665067604    -0.4250853384
H     -0.9595707604    -0.2626899299    -1.3920137376
H     -2.0598546110    -1.5820364091    -1.7999632245
C      0.5129435706    -1.6425161513     0.6258596883
H      0.0796935384    -2.5859395976    -1.2780834762
H     -1.0531102101    -3.0160095124     0.0084392947
C      1.5171683027    -0.6076718128     0.0861798144
H      1.0777611441    -2.5042714043     1.0337304378
H     -0.0320399936    -1.2078936387     1.4864396329
C      2.5273064148    -0.1460021436     1.1529676865
H      0.9789380319     0.2794185033    -0.3013490224
H      2.0504145363    -1.0460097437    -0.7797746948
C      3.5283662268     0.9228598354     0.6677976361
H      3.0867445022    -1.0247343372     1.5331267537
H      1.9665815588     0.2555113765     2.0200773777
C      4.5471418123     0.4208217762    -0.3718105221
H      4.0829755981     1.3185619648     1.5417067158
H      2.9698518733     1.7836445958     0.2469666610
C      5.5552266014     1.5040761871    -0.7873838679
H      4.0183238217     0.0496888043    -1.2697011211
H      5.0878567102    -0.4505633480     0.0470541537
H      6.2833768799     1.1214075008    -1.5236698907
H      6.1237568274     1.8748703311     0.0845563216
H      5.0436093565     2.3709803749    -1.2432817598
