38
pe config_6210 from config_6210.mcos (coord_rad bohr -> angstrom)
C      6.3370994580     1.3418785478    -0.1157070091
C      4.9621523268     0.8453274280     0.3590445865
H      7.1320269043     0.6181125678     0.1397316192
H      6.6029724642     2.3082026941     0.3472245665
H      6.3542712837     1.4808290447    -1.2118492951
C      4.5724442982    -0.5096782722    -0.2597571196
H      4.1955403455     1.6052826993     0.1174337811
H      4.9610889611     0.7496939706     1.4626610120
C      3.2216928619    -1.0730999060     0.2280633155
H      5.3709008104    -1.2434016984    -0.0318782787
H      4.5522555270    -0.4155108211    -1.3645999519
C      1.9898475122    -0.2775467260    -0.2412161847
H      3.2261729741    -1.1235142931     1.3357420869
H      3.1217403355    -2.1189441184    -0.1234735814
C      0.6588503717    -0.8967910381     0.2199826236
H      2.0007339061    -0.2141736702    -1.3482431473
H      2.0486974193     0.7652220710     0.1265686020
C     -0.5789612308    -0.1172065038    -0.2559388052
H      0.6485599401    -0.9588828767     1.3271164132
H      0.5962903856    -1.9417664350    -0.1457586721
C     -1.9093803831    -0.7397325707     0.2012888986
H     -0.5670017616    -0.0527645847    -1.3627648616
H     -0.5177871935     0.9269973703     0.1120318784
C     -3.1480562510     0.0379025116    -0.2770318208
H     -1.9221779977    -0.8029428706     1.3083329321
H     -1.9698973506    -1.7843554830    -0.1656536569
C     -4.4742274072    -0.6020986225     0.1724256347
H     -3.1353564428     0.1039102556    -1.3838841833
H     -3.0847680623     1.0794950104     0.0933963640
C     -5.7381974117     0.1263203318    -0.3296654325
H     -4.4995865518    -0.6539470290     1.2798131897
H     -4.4992152082    -1.6511735021    -0.1830842665
C     -5.9428605559     1.5236898373     0.2792305557
H     -6.6229603411    -0.4983126566    -0.1023110262
H     -5.6978993034     0.2036596085    -1.4339977476
H     -6.8832667367     1.9813606047    -0.0746369569
H     -5.1221851563     2.2129493689     0.0157815864
H     -5.9915706868     1.4701846697     1.3819861378
