38
pe config_800 from config_800.mcos (coord_rad bohr -> angstrom)
C     -2.7258446973    -2.5424185332    -0.2243965821
C     -3.6851863240    -1.3780041687    -0.5199291680
H     -3.0181463669    -3.0703251008     0.7015489476
H     -1.6855263235    -2.1968318727    -0.0951014334
H     -2.7268200863    -3.2808791723    -1.0451564673
C     -3.7847393626    -0.3427940187     0.6215375844
H     -4.6964031614    -1.7842425300    -0.7130251910
H     -3.3816746729    -0.8761400501    -1.4581646577
C     -2.4985045987     0.4642631407     0.9032649735
H     -4.0884612220    -0.8692137654     1.5479732588
H     -4.6038416392     0.3674619903     0.3928561132
C     -2.1017265685     1.4273176671    -0.2313640765
H     -1.6639348071    -0.2277301054     1.1235223610
H     -2.6488550865     1.0557870273     1.8283032623
C     -0.9122405116     2.3499705306     0.1141276776
H     -2.9784010441     2.0596101674    -0.4762375667
H     -1.8774892387     0.8575426248    -1.1527396049
C      0.4504703497     1.6457383036     0.2939263514
H     -1.1549937117     2.9043700724     1.0422522579
H     -0.8101809608     3.1160893737    -0.6796969327
C      1.0134171144     1.0311294192    -1.0018690570
H      0.3699172933     0.8701827941     1.0783504947
H      1.1818661279     2.3851419837     0.6764761024
C      2.4443322779     0.4686546215    -0.8654820208
H      1.0078306402     1.8103019518    -1.7899195955
H      0.3436723030     0.2266723591    -1.3636301066
C      2.5495265423    -0.7812818121     0.0294038112
H      3.1085258033     1.2675276360    -0.4820742587
H      2.8265826022     0.2102860446    -1.8729364020
C      3.9551794525    -1.4171426677     0.0618521505
H      1.8215211760    -1.5336218954    -0.3333771572
H      2.2435801237    -0.5344623135     1.0646675645
C      5.0221520738    -0.5498069305     0.7513212723
H      4.2740234719    -1.6448742734    -0.9743817543
H      3.8930733459    -2.3921783257     0.5816050418
H      5.9954298951    -1.0694250333     0.7933216060
H      4.7260292455    -0.3104429195     1.7887580071
H      5.1816618055     0.4056400227     0.2224486118
