38
pe config_1130 from config_1130.mcos (coord_rad bohr -> angstrom)
C     -3.5557826147     2.4671816774    -0.9313658719
C     -3.4695288785     0.9611601509    -0.6365774736
H     -2.5527440328     2.9307640069    -0.9341137359
H     -4.1604832641     2.9888692765    -0.1676329593
H     -4.0169504272     2.6637069413    -1.9149554095
C     -2.8400007626     0.6583927639     0.7350108468
H     -2.8883531282     0.4650471018    -1.4367277706
H     -4.4829655222     0.5151993981    -0.6743024630
C     -2.7902484893    -0.8415478461     1.0974665147
H     -3.4207261519     1.1903529466     1.5146923570
H     -1.8215528398     1.0922316373     0.7727852316
C     -1.8654280995    -1.7105332344     0.2181394568
H     -3.8188895088    -1.2502310830     1.0494411791
H     -2.4728684259    -0.9454496083     2.1537072085
C     -0.3659177664    -1.3904101606     0.3611917644
H     -2.1587416267    -1.6197735290    -0.8459517182
H     -2.0256535926    -2.7746335583     0.4824676329
C      0.5196170881    -2.3270592223    -0.4808267012
H     -0.0759000883    -1.4712671725     1.4283232411
H     -0.1803750917    -0.3397480389     0.0705774747
C      2.0436799198    -2.1619736069    -0.2984486962
H      0.2716306139    -2.1927863784    -1.5528695369
H      0.2498334228    -3.3747391024    -0.2373081968
C      2.6451626526    -0.8242189570    -0.8000307600
H      2.5348405647    -2.9934813354    -0.8382594599
H      2.3045762482    -2.3064595169     0.7693753214
C      2.7419225159     0.2935982405     0.2561131958
H      2.0588362314    -0.4619805131    -1.6687086159
H      3.6656433395    -1.0127856103    -1.1867924745
C      3.4103708593     1.5718156272    -0.2806998523
H      3.3176508389    -0.0825103658     1.1253796863
H      1.7361293327     0.5456944096     0.6426417605
C      3.5281888814     2.6806777854     0.7768144616
H      2.8347152372     1.9470651584    -1.1496207365
H      4.4167691079     1.3189008240    -0.6682106476
H      2.5338455100     2.9771659086     1.1563299436
H      4.0122365165     3.5842154933     0.3668919104
H      4.1272848997     2.3441334027     1.6421194666
