38
pe config_1600 from config_1600.mcos (coord_rad bohr -> angstrom)
C     -5.7020497506    -1.2971927127     0.9020013743
C     -5.4263316852    -0.6672685238    -0.4737156865
H     -6.7860157646    -1.3857900060     1.0923313876
H     -5.2717356167    -0.6989812715     1.7235764464
H     -5.2676777201    -2.3113727985     0.9657837236
C     -3.9297545392    -0.5738282902    -0.8367030276
H     -5.8739157524     0.3451927361    -0.5159533775
H     -5.9448221161    -1.2598593337    -1.2513154338
C     -3.1228682161     0.4088627682     0.0313621361
H     -3.8357866684    -0.2680196204    -1.8974627317
H     -3.4748689603    -1.5828039623    -0.7682608218
C     -1.6459265044     0.5150652552    -0.3885822893
H     -3.1738927976     0.1050201749     1.0950572666
H     -3.5930556669     1.4116477796    -0.0245682432
C     -0.8459002917     1.5183403618     0.4622585682
H     -1.5885019937     0.8174799237    -1.4539299781
H     -1.1811995320    -0.4883415193    -0.3290494379
C      0.6261259196     1.6909048279     0.0341647422
H     -0.8828506875     1.2093171938     1.5265295359
H     -1.3509394239     2.5032840946     0.4142732216
C      1.5135932201     0.4581299379     0.2858266902
H      1.0584160279     2.5542032108     0.5776308423
H      0.6650375195     1.9580279077    -1.0413141316
C      2.9854035012     0.6834642612    -0.1021915625
H      1.1222403499    -0.4122883393    -0.2756741056
H      1.4547338597     0.1836705177     1.3585922085
C      3.8833733109    -0.5377842408     0.1596181385
H      3.3812811154     1.5554105095     0.4568831256
H      3.0434042791     0.9561814711    -1.1755055911
C      5.3553964670    -0.3125444016    -0.2264608117
H      3.4888402906    -1.4099038074    -0.4003625056
H      3.8254587625    -0.8114486282     1.2326962378
C      6.2433005130    -1.5381235308     0.0398338131
H      5.7485823313     0.5591806189     0.3325091511
H      5.4124424288    -0.0386595074    -1.2982362832
H      6.2320197918    -1.8137255930     1.1097936665
H      7.2929548215    -1.3497212103    -0.2453902497
H      5.8936794543    -2.4158548152    -0.5331064326
