38
pe config_2070 from config_2070.mcos (coord_rad bohr -> angstrom)
C      3.8242499397     2.3185733570     0.6630749951
C      4.4146748560     1.2329851822    -0.2524844981
H      2.7371174229     2.4372093693     0.5146040475
H      4.2912364866     3.3008282331     0.4728181767
H      3.9899781753     2.0704563288     1.7271646148
C      3.8568497664    -0.1822626620     0.0049739297
H      5.5134692766     1.2113158734    -0.1227665049
H      4.2401257718     1.5044811890    -1.3121838018
C      2.3711070641    -0.3587869706    -0.3594620682
H      4.0062027053    -0.4435855570     1.0723276252
H      4.4526580637    -0.9147577018    -0.5748141116
C      1.8717355098    -1.7995151211    -0.1430486768
H      2.2223786415    -0.0787311654    -1.4221545889
H      1.7551681886     0.3429349894     0.2330111344
C      0.4066483114    -2.0402325428    -0.5622852616
H      1.9955137608    -2.0746078081     0.9240435367
H      2.5256112142    -2.4892954289    -0.7125660210
C     -0.6361777956    -1.3265329990     0.3179654747
H      0.2018691775    -3.1289127365    -0.5401171045
H      0.2727281964    -1.7269661071    -1.6175159312
C     -2.0841327775    -1.6507808917    -0.0930502914
H     -0.4718744383    -0.2333653964     0.2798582003
H     -0.4834090443    -1.6242204141     1.3753335955
C     -3.1611950412    -1.0170015919     0.8137398460
H     -2.2163496732    -2.7508955200    -0.0814314270
H     -2.2441748663    -1.3415900354    -1.1444376517
C     -3.2538533806     0.5232870623     0.7619048829
H     -2.9719288699    -1.3310742548     1.8590685980
H     -4.1499722960    -1.4388906566     0.5459396031
C     -3.7356492143     1.0857693735    -0.5874871149
H     -2.2732164482     0.9718144988     1.0149656611
H     -3.9510376535     0.8618626082     1.5539952897
C     -3.8705479862     2.6168350798    -0.5789294216
H     -4.7115442330     0.6267946972    -0.8410362143
H     -3.0390102889     0.7849208374    -1.3926729973
H     -4.2250196829     2.9997751168    -1.5517985482
H     -2.9011887394     3.1011167099    -0.3624292095
H     -4.5875863601     2.9493586764     0.1933232535
