91
pet config_7090 from config_7090.mcos (coord_rad bohr -> angstrom)
C     -3.8309923984    -3.5586917556    -1.2650934418
C     -2.4943136862    -3.9071875643    -1.0113427420
C     -2.0773051657    -4.1167877030     0.3170765304
C     -2.9887499904    -3.9770635090     1.3605479215
C     -4.7425812587    -3.4185937417    -0.2217309092
C     -4.3251813194    -3.6280711500     1.1064621087
C     -1.5510972749    -4.0464953797    -2.1668946055
C     -5.2678241783    -3.4897692563     2.2626358293
O     -6.5201217386    -3.1546111272     1.8697462509
C     -7.4998931523    -2.9958095951     2.9365664248
C     -8.8455050383    -2.7185448150     2.3059254017
H     -7.1854925568    -2.1752126570     3.6015007762
H     -7.5573702680    -3.9274053669     3.5227859829
O     -0.3020350721    -4.3928362662    -1.7739756365
O     -1.8663781625    -3.8709517519    -3.3368911317
O     -4.9510285352    -3.6598997011     3.4329666712
H     -4.1441248798    -3.3982146987    -2.3014720273
H     -5.7798327776    -3.1461478674    -0.4306203760
H     -1.0398785600    -4.3882922800     0.5262709387
H     -2.6755802123    -4.1374280205     2.3969316867
H      7.6658746172     1.8343970662     3.3058949449
C     12.9954012751     1.6303641170    -0.9006781681
C      7.7901766980     2.7565437614     2.7178337029
C     10.0491922124     2.2053967920     2.1924165414
C     13.3391456781     1.4826571715     0.4564222263
C     14.0007958229     1.4379179576    -1.9907014064
C     12.3725970394     1.6719524346     1.4409366376
C     11.0535254421     2.0100329756     1.0974813058
C     10.7100251634     2.1575706363    -0.2601353974
C     11.6760758624     1.9678050580    -1.2446303459
C      6.5141900840     3.1456258839     1.9955055477
O     13.7567216822     1.5563087618    -3.1843517583
O     10.2960235582     2.0696359492     3.3838053690
O      8.8304211902     2.5549332999     1.7168434272
O     15.2332482323     1.1135215888    -1.5241779149
H     14.3628908930     1.2204126583     0.7346731817
H      9.6863767991     2.4199957465    -0.5376150585
H     11.4203572688     2.0795319076    -2.3028805225
H     15.8212278832     1.0092849966    -2.3033761067
H     12.6282210417     1.5596719367     2.4991153010
H      8.0884323822     3.5733921367     3.3963728060
H     -9.6822363362     6.2928208371    -2.8100276104
C     -9.8190003161     0.4021670817     0.5338349026
C    -10.6717796879     6.1013553655    -2.3665586412
C     -9.5035938827     4.3205781985    -1.2398902377
C     -8.5983507732     1.1034468207     0.5513825768
C     -9.9564929795    -0.9600645153     1.1419650575
C     -8.5167097124     2.3674101866    -0.0272913262
C     -9.6388223029     2.9578809335    -0.6314635611
C    -10.8600108244     2.2564542898    -0.6463927140
C    -10.9419605299     0.9917836101    -0.0692954457
C    -11.0224373458     7.1852332750    -1.3517332670
O    -10.9932235418    -1.6113601308     1.1450412206
O     -8.4508420289     4.9436916082    -1.2869937190
O    -10.6789255220     4.7786272582    -1.7392631426
O     -8.7993669502    -1.3966485539     1.6947831859
H     -7.7183602644     0.6543729032     1.0178778945
H    -11.7400789113     2.7062978566    -1.1121339060
H    -11.8857315120     0.4375734109    -0.0779989830
H     -7.5721016168     2.9201431233    -0.0204004265
H    -11.4404883267     6.0360960482    -3.1505750890
H      2.7326406042    -5.1433473333    -2.9973020552
C      4.7284740329     0.1119920963     0.7735043974
C      2.0077448349    -4.9134315657    -2.2014081918
C      3.2806386640    -2.8945521137    -1.9569234179
C      4.9647950844     0.2231340871    -0.6103213023
C      5.2157337092     1.1454528020     1.7415886191
C      4.4879422074    -0.7577200609    -1.4761022706
C      3.7747473146    -1.8649295501    -0.9880981975
C      3.5400886240    -1.9768070990     0.3960406823
C      4.0151181290    -0.9949951692     1.2616530927
C      0.6828794879    -4.5392419066    -2.8383090143
O      4.9342621370     1.1538771010     2.9328933493
O      3.5226901992    -2.8774006518    -3.1567076802
O      2.5315629468    -3.8512684247    -1.3517685492
O      6.0066838510     2.0745245489     1.1469346431
H      5.5179146544     1.0802812555    -1.0014623409
H      2.9873882099    -2.8341729409     0.7872286781
H      3.8369983996    -1.0723655250     2.3387127216
H      4.6638938466    -0.6792092671    -2.5534432499
H      1.8952133492    -5.7781673958    -1.5324274507
H      6.6884280112     3.9868427245     1.3099385546
H      5.7526482020     3.4187360198     2.7420183217
H      0.3661371642    -5.3446876036    -3.5221396996
H      0.7499541097    -3.5983091511    -3.4057247862
H     -9.6236786862    -2.7343439587     3.0864119580
H     -9.0963004391    -3.4676417500     1.5376432499
O    -12.3463511366     7.0417288881    -0.8150994961
H    -10.9986069066     8.1580414881    -1.8704729028
H    -10.2654218144     7.2081158276    -0.5447779190
H    -12.3661555321     6.2099641924    -0.3075166142
