91
pet config_17510 from config_17510.mcos (coord_rad bohr -> angstrom)
C      1.7662784054    -3.9656366270    -0.0921910917
C      2.0028305840    -5.2608970026     0.4037139955
C      1.2225489359    -6.3330279472    -0.0612117974
C      0.2354133963    -6.1197213620    -1.0198649643
C      0.7568274216    -3.7472930480    -1.0272740900
C     -0.0117833762    -4.8243076063    -1.5055562991
C      3.0550777707    -5.5189691850     1.4390240281
C     -1.0800776716    -4.6225201458    -2.5362378820
O     -1.4472074488    -3.3203710164    -2.6286304067
C     -2.3993231988    -2.9568204261    -3.6707444466
C     -3.8444568881    -3.2622499503    -3.2950287934
H     -2.1668745426    -3.5103962457    -4.5953417158
H     -2.2352061898    -1.8809790485    -3.8196670246
O      3.9211369414    -4.4817624402     1.5439709079
O      3.1298041447    -6.5417487199     2.1068353217
O     -1.5610017773    -5.5184072620    -3.2176404510
H      2.3731454148    -3.1309203842     0.2672131760
H      0.5638586269    -2.7391175374    -1.4026837495
H      1.4064513733    -7.3361653136     0.3352781473
H     -0.3611446757    -6.9544320981    -1.4000369009
H      5.1871912737     5.9721864100    -1.8428770098
C     -0.7658820404     2.5807180002    -2.8684344884
C      4.2829036247     6.2295738733    -1.2730451468
C      1.9751443281     5.6700213879    -1.6389139044
C     -1.2367921053     3.7519388091    -2.2456821768
C     -1.6887926288     1.4533946087    -3.2243767839
C     -0.3381807846     4.7491962266    -1.8731565203
C      1.0387011627     4.5983114595    -2.1051605527
C      1.5082400758     3.4334731718    -2.7426345074
C      0.6084849821     2.4407666251    -3.1211373326
C      4.5231083247     6.1008402091     0.2240182235
O     -1.3000969688     0.3969016704    -3.7153207619
O      1.6168783985     6.7565222388    -1.2045132847
O      3.2744353720     5.2876064497    -1.7392522100
O     -2.9781532889     1.7061655479    -2.9320590501
H     -2.3048060257     3.8695888838    -2.0460406345
H      2.5770481807     3.3099533239    -2.9322820619
H      0.9610177518     1.5274003607    -3.6104689708
H     -3.5165254787     0.8736658244    -3.0773873390
H     -0.6926011780     5.6605418702    -1.3815645850
H      3.9715832691     7.2608028108    -1.5030706606
H     -6.4835298261     2.0105055911     5.2783782862
C     -4.9379502247    -0.8579811544    -0.6605778587
C     -7.0680313090     2.4458324670     4.4530274377
C     -6.1316138829     0.6016185208     3.2169926533
C     -4.7471007599    -1.6433124103     0.4931047964
C     -4.5124239228    -1.3441535241    -2.0066905455
C     -5.1347453672    -1.1518511984     1.7362906259
C     -5.7219864069     0.1182696009     1.8579360868
C     -5.9190476007     0.8992189708     0.7030895998
C     -5.5253719877     0.4124891666    -0.5407615595
C     -8.5595518569     2.2103318637     4.6701617924
O     -4.4242069371    -0.6254453157    -3.0062878041
O     -6.0160547400    -0.0640665761     4.2375027879
O     -6.6301768973     1.8620747770     3.1835890578
O     -4.2542551647    -2.6618556742    -2.0256980956
H     -4.2898039077    -2.6320542050     0.4101377696
H     -6.3815833874     1.8855832465     0.7853189224
H     -5.6788840531     1.0156025474    -1.4408165313
H     -4.9864487689    -1.7506982696     2.6402193932
H     -6.8517995672     3.5193302071     4.3501730213
H      6.4923463690    -3.9591377426     1.1614789842
C      4.8825345932     2.5745596297     1.3888486867
C      6.1101701748    -3.6931931165     2.1602772256
C      6.5429270196    -1.3897815676     1.7263505912
C      6.1939733751     2.3038437955     0.9537456883
C      4.2549578390     3.9258830862     1.2271399898
C      6.7198308253     1.0215505592     1.0914517826
C      5.9525363667    -0.0149569655     1.6476636316
C      4.6448337558     0.2577240322     2.0917631152
C      4.1238490647     1.5428447546     1.9660340225
C      4.9559160297    -4.5831696697     2.5642154289
O      3.1516639239     4.2187778013     1.6681311946
O      7.6997661306    -1.6602091068     1.4305373377
O      5.6426556556    -2.3131482877     2.1412139167
O      5.0481493973     4.7743588841     0.5240189719
H      6.7938512243     3.0993249796     0.5052209333
H      4.0398441562    -0.5404742553     2.5283732469
H      3.1075784750     1.7651338986     2.3058065981
H      7.7375083424     0.7998598617     0.7550592049
H      6.9268768629    -3.7959386952     2.8938247239
H      3.6050976843     6.2708735604     0.8037343974
H      5.2998156024     6.8199499149     0.5269865382
H      4.5226293908    -4.2788151532     3.5311517316
H      5.3063131236    -5.6246008536     2.6396304932
H     -4.0021591077    -4.3367962167    -3.1386432780
H     -4.5003221726    -2.8971829030    -4.1015962225
O     -9.3776126371     2.8481961942     3.6778374563
H     -8.8372764569     2.6572090905     5.6392909207
H     -8.7679319801     1.1245512654     4.7212734337
H     -9.1849088955     2.4215844872     2.8230356932
