91
pet config_27150 from config_27150.mcos (coord_rad bohr -> angstrom)
C     -3.6477246581     3.3654922565    -0.5199465801
C     -3.7811557214     4.7663848504    -0.5065957258
C     -4.5087147745     5.3976044740    -1.5296374433
C     -5.0901027237     4.6464124289    -2.5462376742
C     -4.2314834513     2.6129221413    -1.5373249043
C     -4.9580405440     3.2474870453    -2.5624501227
C     -3.1684112821     5.6123222999     0.5674180848
C     -5.5987277633     2.4756699992    -3.6742378702
O     -5.4465199861     1.1352203554    -3.5237371132
C     -6.0151630744     0.2872971888    -4.5641944162
C     -7.4878858026    -0.0134779327    -4.3215693808
H     -5.4102997389    -0.6289141748    -4.5391150730
H     -5.9107310020     0.7804542291    -5.5436322060
O     -2.5336530784     4.8713936504     1.5070709488
O     -3.2321654381     6.8344722514     0.6012113385
O     -6.1894606756     2.9911229646    -4.6144361313
H     -3.0819386360     2.8693365969     0.2727302439
H     -4.1255111766     1.5251861357    -1.5443315776
H     -4.6095792635     6.4868635629    -1.5140876962
H     -5.6558992961     5.1345805315    -3.3452324157
H      7.3713043905    -0.7320528727     1.1767143763
C     13.2249637606    -3.1809518985    -1.2725021669
C      8.0780551870     0.0474037677     0.8526483263
C      9.9307302027    -1.4485967052     0.9002591918
C     12.9904817388    -3.5250211135     0.0721733361
C     14.3617551310    -3.7685909153    -2.0465310422
C     11.9207630127    -2.9542017247     0.7570532948
C     11.0687435734    -2.0356773626     0.1225504612
C     11.3038327978    -1.6917527690    -1.2227416565
C     12.3730593949    -2.2626397867    -1.9077397025
C      7.4468418080     0.9903059820    -0.1714104927
O     14.6138549461    -3.5004791310    -3.2139424402
O      9.6782363403    -1.7234783510     2.0654137977
O      9.2033826635    -0.5697121567     0.1671209912
O     15.1016807708    -4.6436089613    -1.3196835104
H     13.6473755063    -4.2384582674     0.5758057259
H     10.6466849575    -0.9784093198    -1.7258762007
H     12.5649822685    -2.0030196522    -2.9534373561
H     15.8178303487    -4.9749920775    -1.9036398001
H     11.7287386824    -3.2142984809     1.8026503172
H      8.4391197585     0.5995084928     1.7352628531
H     -8.3247009592    -7.7228935861     2.9273911688
C     -7.8514302824    -2.7177412654    -1.7830958124
C     -8.6026383189    -6.7053388809     3.2371608996
C     -8.5810168076    -4.6126903927     2.0160040013
C     -8.2458797013    -1.9570194921    -0.6654928481
C     -7.5904736879    -2.0842206253    -3.1152641424
C     -8.4799506394    -2.5866433280     0.5541678357
C     -8.3259096688    -3.9764717279     0.6868236249
C     -7.9304580277    -4.7377015357    -0.4300243124
C     -7.6967109903    -4.1073007762    -1.6491749967
C     -9.9833603220    -6.7188594408     3.8940413972
O     -7.3094186172    -2.7119401376    -4.1278569896
O     -8.8203536662    -3.9642316939     3.0364007135
O     -8.5285008471    -5.9541407885     1.9717205225
O     -7.7040587391    -0.7328857061    -3.0722277650
H     -8.3693402172    -0.8755425821    -0.7588709920
H     -7.8052684723    -5.8190515554    -0.3359401954
H     -7.3886000390    -4.6883391844    -2.5238848472
H     -8.7877776788    -2.0051353064     1.4286805286
H     -7.8402965303    -6.3062456596     3.9266201498
H     -1.9898949303     3.8556953568     3.8469970086
C      4.0941878117     2.0157586907     1.0840025613
C     -1.2645571722     4.6206141215     3.5358660331
C      1.0520886763     4.4420589087     2.9413014685
C      4.3970615943     3.3027385942     1.5691442979
C      5.1322214875     1.1532668502     0.4356627151
C      3.4001496769     4.0711756203     2.1644900260
C      2.0905438011     3.5800471656     2.2919967547
C      1.7877183273     2.2932939564     1.8062582799
C      2.7844749030     1.5246998253     1.2108871074
C     -1.8975534247     5.6186335267     2.5849223056
O      4.9027118107     0.0594221375    -0.0614091891
O      1.2853598462     5.5344132151     3.4419801648
O     -0.1796814704     3.8726149796     2.9128279449
O      6.3637145873     1.7283280535     0.4598313973
H      5.4122417079     3.6954884021     1.4760063229
H      0.7725817189     1.9005395724     1.8999774822
H      2.5596203723     0.5231274659     0.8312839911
H      3.6250656990     5.0725514286     2.5445680749
H     -0.8839968693     5.1605661700     4.4164012698
H      7.0650565519     0.4330302793    -1.0396618430
H      8.1667639743     1.7546158001    -0.4956860038
H     -1.1548065385     6.3111217107     2.1598779789
H     -2.6602825937     6.2042145948     3.1253247677
H     -7.8717065067    -0.6097438990    -5.1644349787
H     -8.0732651242     0.9097159886    -4.2174143210
O    -10.2335049849    -5.6117420449     4.7666856392
H    -10.0416302449    -7.6315127321     4.5121089746
H    -10.7577423910    -6.8009619924     3.1035979013
H     -9.8490297026    -4.8253261890     4.3155195357
