91
pet config_4560 from config_4560.mcos (coord_rad bohr -> angstrom)
C     -2.9938859120    -1.2950937301    -0.5736662060
C     -2.1028586204    -2.2705029747    -0.0969650713
C     -1.7323413404    -2.2592584887     1.2616422193
C     -2.2524077808    -1.2888981802     2.1142161623
C     -3.5118064399    -0.3229574072     0.2781786441
C     -3.1419051871    -0.3122499999     1.6370290146
C     -1.5714200650    -3.2958158428    -1.0503605264
C     -3.6715704632     0.7142060286     2.5901533429
O     -4.5582437536     1.5550081156     1.9993902661
C     -5.1223779963     2.6091831114     2.8328820093
C     -6.3467455243     2.1383955654     3.6058174916
H     -5.3777920639     3.4140803231     2.1309754737
H     -4.3641769862     2.9616906863     3.5499249242
O     -0.6255189462    -4.0854827307    -0.4810562029
O     -1.9452774856    -3.4104880954    -2.2103311702
O     -3.3416849681     0.7910415037     3.7665320925
H     -3.2757399456    -1.3126831543    -1.6310662319
H     -4.2027384110     0.4319494316    -0.1042940621
H     -1.0404020398    -3.0134164702     1.6438701469
H     -1.9726069539    -1.2726487021     3.1721755581
H     10.3599936057     0.2145620686     3.4105764130
C     10.8126548757     4.0486048932    -2.1468023139
C      9.5484913565    -0.0038334294     2.6986118970
C     10.8611618130     1.2925098522     1.1664394360
C     12.0309925807     3.5884009495    -1.6124830231
C     10.7707721762     5.0038840852    -3.2965854141
C     12.0257044609     2.6981114423    -0.5417947659
C     10.8169027577     2.2508602676     0.0161106653
C      9.5982571363     2.7108127055    -0.5197651618
C      9.6032455621     3.6010852453    -1.5902235030
C      9.6595146540    -1.4569746993     2.2581647506
O      9.7412451963     5.4201407170    -3.8114712768
O     11.8957297162     0.8931841088     1.6846983383
O      9.6213317857     0.9192653967     1.5726509807
O     12.0046487612     5.3739742385    -3.7234912248
H     12.9775732357     3.9297178542    -2.0386804448
H      8.6525182983     2.3682872931    -0.0933534123
H      8.6624456313     3.9659009064    -2.0140652145
H     11.8793422833     5.9941763637    -4.4740583973
H     12.9668727850     2.3342624520    -0.1182091843
H      8.5752666487     0.1997300807     3.1646770189
H    -15.0016772930     0.6361098712    -1.9624602091
C     -9.3357871979     2.1390886959     1.3800633981
C    -14.3280800918     1.2228341774    -2.6087435587
C    -12.4609329821     0.6414347911    -1.1783148954
C     -9.4858643068     0.7554785271     1.1648445979
C     -8.2569445262     2.6868294133     2.2632432284
C    -10.5032499217     0.2890728204     0.3364884449
C    -11.3824325228     1.1837838596    -0.2956079220
C    -11.2314411133     2.5676349539    -0.0827068839
C    -10.2175638601     3.0327981583     0.7503539605
C    -14.0240945224     0.4746833056    -3.9072765698
O     -8.1368601954     3.8728819482     2.5412125205
O    -12.6879033669    -0.5639429626    -1.2986402551
O    -13.1403206188     1.6034600614    -1.8241919785
O     -7.4270587213     1.7166340175     2.7223974093
H     -8.8048035982     0.0518711529     1.6492565173
H    -11.9112778242     3.2712575097    -0.5691275696
H    -10.0931804232     4.1056471891     0.9269763796
H    -10.6314989028    -0.7842481418     0.1653982988
H    -14.7870108605     2.1959820990    -2.8346144747
H      0.8228906206    -3.7730739179    -2.7801579280
C      6.3773236489    -2.6626119764     0.9697968258
C      1.1053446983    -4.6364065502    -2.1582766221
C      3.3188731511    -3.8079835481    -1.8456411256
C      6.6225807089    -2.6212926910    -0.4164201384
C      7.4220178180    -2.2693263987     1.9678349949
C      5.6218954053    -2.9959841839    -1.3094135286
C      4.3644313208    -3.4166147586    -0.8464925543
C      4.1186983392    -3.4575040705     0.5392630884
C      5.1190496699    -3.0819475560     1.4320543493
C     -0.0543977764    -5.1344309184    -1.3167180356
O      7.2645933564    -2.3230429597     3.1807110718
O      3.4685260656    -3.7431434066    -3.0590688968
O      2.1821856453    -4.2487734381    -1.2557310929
O      8.5684770908    -1.8493729271     1.3747944775
H      7.5974149276    -2.2963241541    -0.7875633095
H      3.1438486750    -3.7819817650     0.9108132753
H      4.9383355835    -3.1097007708     2.5111076796
H      5.8016634827    -2.9677990173    -2.3886819946
H      1.4532646915    -5.4498905627    -2.8167803493
H      9.6621228741    -2.0998192890     3.1525213030
H     10.5710133956    -1.6283440763     1.6701863955
H      0.2747878074    -5.9082433233    -0.6089282821
H     -0.8301262051    -5.5392243932    -1.9847432881
H     -6.6951685592     2.9589904511     4.2527118938
H     -6.1207155367     1.2517094509     4.2129453573
O    -13.9145222206    -0.9451301058    -3.7593948782
H    -13.1141144450     0.9101542237    -4.3693852390
H    -14.8669379718     0.6592143433    -4.5955426382
H    -13.4229891493    -1.0876365337    -2.9180700562
