91
pet config_29710 from config_29710.mcos (coord_rad bohr -> angstrom)
C      4.5424624213    -3.4524308873     0.1374299264
C      4.2757353949    -4.5916406223    -0.6445859976
C      4.8415275171    -4.6933811705    -1.9267446603
C      5.6576507677    -3.6795651259    -2.4184637381
C      5.3572388305    -2.4353002001    -0.3564579979
C      5.9247086202    -2.5403130449    -1.6403603320
C      3.4046987462    -5.7070174639    -0.1528782983
C      6.8062437236    -1.4709342983    -2.2073119809
O      6.9109901796    -0.3990019554    -1.3810726681
C      7.7639798222     0.6951046101    -1.8285758667
C      7.0254144887     1.6651578595    -2.7406206982
H      8.6330256677     0.2903561686    -2.3710201396
H      8.0947316500     1.1875175150    -0.9044274645
O      2.9305389135    -5.4788733189     1.0952838856
O      3.1465534891    -6.7143008283    -0.7991696432
O      7.3714687659    -1.5518878506    -3.2901862738
H      4.1060666014    -3.3684444137     1.1360038071
H      5.5610291387    -1.5514851843     0.2533186912
H      4.6303549792    -5.5810158989    -2.5303608990
H      6.1012843914    -3.7563720347    -3.4155395491
H     -7.5351132613     1.6509343753     2.4377040159
C     -7.4339207202    -0.5087584554    -3.9729253429
C     -6.9058687964     0.7552888012     2.3209783651
C     -7.1131748069     1.1954280936    -0.0273167147
C     -7.3376868309     0.8847170879    -3.7978063706
C     -7.5445076103    -1.1232767194    -5.3318217984
C     -7.2358572909     1.4163076486    -2.5147890122
C     -7.2258224144     0.5785253403    -1.3876561375
C     -7.3196093722    -0.8157157310    -1.5638181263
C     -7.4245583811    -1.3474244167    -2.8462912257
C     -5.4813253844     1.1030571679     2.7095932046
O     -7.6149636343    -2.3271206956    -5.5417150224
O     -7.1203495639     2.4018502749     0.1793483559
O     -7.0030013828     0.2627536123     0.9523197422
O     -7.5602650238    -0.2037368933    -6.3297355595
H     -7.3428188394     1.5457686522    -4.6679389060
H     -7.3124212887    -1.4757768948    -0.6932589893
H     -7.5011933965    -2.4290092484    -2.9950250700
H     -7.6321029155    -0.6946410844    -7.1768050169
H     -7.1626781615     2.4981659684    -2.3669073304
H     -7.2967698056    -0.0635042449     2.9412022129
H      0.2120773244     6.6722709751     3.2757042599
C      4.9424140475     4.0029150756    -0.7195140069
C      0.6273656955     7.4531672422     2.6172470672
C      1.4543408816     5.7375549983     1.1188277322
C      3.6608637992     3.4774534377    -0.9739674206
C      6.1719191144     3.4191290429    -1.3452562904
C      2.5438538742     4.0526270113    -0.3736779082
C      2.6783394925     5.1533576584     0.4884765047
C      3.9597352133     5.6783949288     0.7444930097
C      5.0758726779     5.1033967870     0.1429542749
C     -0.4774046499     8.1313125680     1.8063931927
O      7.2936870683     3.8929036881    -1.2203596046
O      0.3341292975     5.2371293862     1.0021679771
O      1.7090141001     6.8598230006     1.8117073138
O      5.9001386603     2.3042972634    -2.0693068414
H      3.5462329142     2.6220001315    -1.6437489425
H      4.0744905145     6.5324902224     1.4161610359
H      6.0765982926     5.5028705751     0.3343268010
H      1.5431924880     3.6533310624    -0.5657709197
H      1.1618212260     8.2003605702     3.2211279661
H      2.5349204684    -5.8404935295     3.6521021569
C     -2.6596481680    -1.3054641014     2.9719994614
C      1.6545489392    -6.0889856818     3.0428019473
C     -0.4872071532    -5.0267883883     2.8507157828
C     -3.3015578758    -2.5009342923     2.5960827337
C     -3.3901613160     0.0016501489     3.0209762330
C     -2.5829897850    -3.6932845823     2.5642941582
C     -1.2194119707    -3.7215213540     2.8997141304
C     -0.5769867668    -2.5252413286     3.2730484784
C     -1.2967364887    -1.3337050321     3.3098244944
C      2.0603557598    -6.5117727313     1.6435572040
O     -2.8697613057     1.0693631884     3.3179016843
O     -1.0275971150    -6.1079828834     2.6569067746
O      0.8474710598    -4.8750901544     3.0456127020
O     -4.6999380089    -0.1272754527     2.7010734103
H     -4.3611071536    -2.4904759344     2.3297835036
H      0.4832967867    -2.5357056588     3.5364459570
H     -0.8087447772    -0.3987422263     3.6024229072
H     -3.0732112985    -4.6285344509     2.2765104707
H      1.0904411627    -6.9098280947     3.5117538605
H     -5.4752441513     1.5340889664     3.7248523443
H     -5.0299135701     1.8272643310     2.0142706524
H      1.1889112075    -6.6423826836     0.9838530440
H      2.6115549568    -7.4656501309     1.6967609089
H      6.5801599947     1.1462470715    -3.5998710967
H      7.7337688685     2.4328265248    -3.0901590768
O     -1.5325188299     7.2546287182     1.3967450704
H     -0.0201600702     8.6548773545     0.9415086075
H     -0.9340934361     8.8985660092     2.4553608310
H     -1.0921641419     6.4157531587     1.1280810787
