91
pet config_54160 from config_54160.mcos (coord_rad bohr -> angstrom)
C     -6.4604863568    -1.1661011256    -0.3816806004
C     -7.0619724288    -2.0830356095    -1.2635681671
C     -7.7157658770    -1.6061919435    -2.4121531604
C     -7.7632910033    -0.2413612882    -2.6785316312
C     -6.5184812186     0.2015863522    -0.6428346051
C     -7.1704048463     0.6775613989    -1.7959971903
C     -7.0336537811    -3.5599567373    -1.0127752814
C     -7.2489059878     2.1385008745    -2.1149339630
O     -6.7527103412     2.9090713925    -1.1130909622
C     -6.7953877460     4.3530714587    -1.3068924200
C     -5.5355526100     4.8769203515    -1.9823430919
H     -6.9107015626     4.7710654860    -0.2982265579
H     -7.6661380350     4.6180779165    -1.9270680747
O     -6.2712809104    -3.8834272027     0.0589979260
O     -7.6256430044    -4.3862986365    -1.6949564431
O     -7.7168290137     2.5884332408    -3.1526252285
H     -5.9496020588    -1.5321964433     0.5125141763
H     -6.0548632553     0.9115612632     0.0466980727
H     -8.1834515076    -2.3235661925    -3.0929671853
H     -8.2662643883     0.1335129545    -3.5748384738
H      4.5455106292    -1.2899994134     1.2638556320
C     10.5474574415     0.2141084457    -1.6104112357
C      4.7333567873    -1.7863461234     0.2982345557
C      6.4635953970    -0.2721264396    -0.3376577035
C     10.0462159840    -1.0752291217    -1.3535443255
C     11.9587100129     0.4383297176    -2.0540807724
C      8.7262660154    -1.2460762296    -0.9410516437
C      7.8848675760    -0.1294801969    -0.7785389218
C      8.3880329873     1.1573451303    -1.0363529664
C      9.7057354193     1.3272670530    -1.4479526546
C      4.5964072300    -3.3044570865     0.4154210586
O     12.4411183972     1.5380302415    -2.2895533575
O      5.6962076761     0.6781644304    -0.2006364266
O      6.1128674754    -1.5538688942    -0.1099640994
O     12.6657390228    -0.7135642074    -2.1722703223
H     10.6972762393    -1.9442844010    -1.4790130098
H      7.7287201439     2.0208126020    -0.9092477693
H     10.1021067521     2.3266952852    -1.6497118991
H     13.5708840376    -0.4714343176    -2.4654829087
H      8.3399779012    -2.2491292564    -0.7428878178
H      4.0529200705    -1.3770947907    -0.4640311464
H      3.3379057939     4.4274913709     3.2608612522
C     -2.8176948480     5.2563246669     0.5381702520
C      2.9487284924     3.4969768443     2.8175164697
C      0.7912659774     4.5191386272     2.7784478086
C     -2.5529509334     5.9494047503     1.7315856354
C     -4.0847909073     5.5562325633    -0.2001486122
C     -1.3883609092     5.6954716528     2.4492453596
C     -0.4529892875     4.7598123590     1.9765554499
C     -0.7103845877     4.0714330172     0.7766672592
C     -1.8882772706     4.3088079366     0.0695257146
C      3.9520725926     2.9252534581     1.8383836866
O     -4.8138293326     6.5075024046     0.0505501438
O      0.9606263809     4.9407651384     3.9166590708
O      1.7072930627     3.7928266076     2.1017795083
O     -4.3380449462     4.6520810007    -1.1805091354
H     -3.2774842881     6.6873039728     2.0886250227
H      0.0162206211     3.3431819101     0.4067257540
H     -2.0914796968     3.7653562032    -0.8569003971
H     -1.1843183717     6.2227546841     3.3859090205
H      2.7245504512     2.7800447894     3.6253022586
H     -5.2551332557    -6.5047251669     1.8957377729
C      0.9690442099    -4.1381534060     0.4615030584
C     -5.2360496657    -5.4594377189     1.5463586704
C     -2.9099631022    -5.2038984663     2.0117450527
C      0.8002959937    -4.4499626913     1.8244402370
C      2.3030395790    -3.7626772389    -0.1031295453
C     -0.4597861561    -4.7974186795     2.3050286943
C     -1.5720744124    -4.8319289513     1.4483887260
C     -1.4039750085    -4.5177044472     0.0862652250
C     -0.1427476857    -4.1785112345    -0.3957024866
C     -6.1816487115    -5.3026300470     0.3768074935
O      2.5208059427    -3.5926003008    -1.2946750633
O     -3.1001485763    -5.5366040340     3.1744047861
O     -3.8946435208    -5.1270977948     1.0853724992
O      3.2521554248    -3.6318906044     0.8625314763
H      1.6581514268    -4.4215779900     2.5004340589
H     -2.2626267469    -4.5410310807    -0.5887548785
H     -0.0002598264    -3.9364744834    -1.4534471404
H     -0.6018605299    -5.0467511340     3.3612083315
H     -5.5102984004    -4.7978647178     2.3835917724
H      5.2649388126    -3.7018061690     1.1915987316
H      4.8001612046    -3.7912296704    -0.5498919816
H     -7.1791690705    -5.6776842979     0.6590961019
H     -5.8290906154    -5.8560327729    -0.5080809596
H     -5.6569252863     5.9555243510    -2.1707170340
H     -5.3393466365     4.3519649704    -2.9270880882
O      3.5198472144     1.6334243484     1.3969846772
H      4.9213247818     2.8660417231     2.3740785514
H      4.0769543371     3.6235944689     0.9863790582
H      4.2161845901     1.2731500555     0.8036907860
