91
pet config_59600 from config_59600.mcos (coord_rad bohr -> angstrom)
C     -6.5298246288    -1.8803497369     0.3560415361
C     -7.0114299132    -2.8296130880    -0.5644953213
C     -7.9306263165    -2.4282634100    -1.5485427944
C     -8.3605044564    -1.1066377453    -1.6128969315
C     -6.9598702522    -0.5562798981     0.2907992535
C     -7.8819149270    -0.1564702296    -0.6948877784
C     -6.5779610298    -4.2632626724    -0.5279486552
C     -8.3673034738     1.2562344409    -0.8002516169
O     -7.7818496986     2.0710315087     0.1143547720
C     -8.1980681422     3.4681399237     0.1118367598
C     -7.4101444467     4.3041711299    -0.8786353890
H     -8.0298004395     3.8126090062     1.1419185029
H     -9.2679481464     3.5351754952    -0.1387550210
O     -5.6798937365    -4.5053841659     0.4567571866
O     -6.9854508793    -5.1247868984    -1.2964670849
O     -9.1989277210     1.6351880823    -1.6146199480
H     -5.8152977718    -2.1869156274     1.1242406040
H     -6.5834618627     0.1780108736     1.0074983777
H     -8.3019642836    -3.1704042223    -2.2614090269
H     -9.0766350936    -0.7909824378    -2.3773537918
H      6.0380356734    -3.3940090826     0.1235856159
C     11.4269287967     0.6020795143    -0.9907229141
C      5.7821454546    -2.3293626884     0.0003783523
C      8.0248225141    -1.6409756156     0.4117481542
C     10.2390722607     0.5942585215    -1.7448094152
C     12.6358331136     1.3653195938    -1.4298443225
C      9.1317093678    -0.1281572092    -1.3039518178
C      9.1925628053    -0.8540730486    -0.0997764592
C     10.3801511619    -0.8438374907     0.6514281689
C     11.4861072070    -0.1243930248     0.2105844834
C      4.7533747387    -2.1315973376    -1.1126381765
O     13.6926758465     1.3991993504    -0.8133526276
O      8.0223753394    -2.2646978430     1.4642339181
O      6.9597866272    -1.5886028618    -0.4263133383
O     12.4474095236     2.0300579665    -2.5980148613
H     10.1880070624     1.1581590481    -2.6799481987
H     10.4202552134    -1.4101528637     1.5866655887
H     12.4126687788    -0.1143577664     0.7920468308
H     13.2851319970     2.4982078203    -2.8053009292
H      8.2107533602    -0.1321888866    -1.8925188921
H      5.4233241719    -1.9288528021     0.9610786296
H      2.0213852411     3.1523741155     2.6237177462
C     -3.7726952397     5.0505380223    -0.6738140534
C      1.8928774115     4.1897697669     2.2810061019
C      0.3143556797     5.0865824256     0.7054461862
C     -2.7956736793     5.8198514628    -1.3279937321
C     -5.1777584235     5.0803667530    -1.1919859886
C     -1.4806308594     5.8223551455    -0.8732390404
C     -1.1108113831     5.0514074676     0.2417717246
C     -2.0879483467     4.2786942288     0.8970682873
C     -3.4063367168     4.2796990850     0.4451854163
C      2.0711063130     5.1605380869     3.4351442293
O     -5.5335598786     5.7080746327    -2.1811910425
O      1.1736272946     5.8039046498     0.2077117801
O      0.5395833032     4.2298651237     1.7295487519
O     -6.0211425318     4.3351444104    -0.4377453484
H     -3.0857348637     6.4166674179    -2.1978321695
H     -1.8068649043     3.6797770587     1.7670940170
H     -4.1620300661     3.6798999220     0.9588375261
H     -0.7182603102     6.4232734509    -1.3778867807
H      2.6179230532     4.4203907499     1.4859056997
H     -3.9320239633    -6.9986753572     1.8705597940
C      1.4258214134    -3.2414743047     0.1383854182
C     -4.2091542618    -5.9465603628     1.7029437871
C     -2.0179212853    -5.7638349452     0.7457773519
C      1.3502862200    -4.5131761744    -0.4620800447
C      2.6083757134    -2.3448584607    -0.0602460033
C      0.2298894537    -5.3129303890    -0.2526953175
C     -0.8324064775    -4.8694286441     0.5518471680
C     -0.7570353991    -3.5976706048     1.1520147527
C      0.3644717885    -2.7988649348     0.9447862521
C     -5.1998477840    -5.8782033043     0.5562613495
O      2.6994722694    -1.2162788002     0.4026361128
O     -2.0866901232    -6.9098325938     0.3210952299
O     -3.0101099887    -5.1580625749     1.4463855936
O      3.5711421234    -2.9281331916    -0.8222909851
H      2.1695681759    -4.8685266886    -1.0913900198
H     -1.5769260923    -3.2420533762     1.7804273680
H      0.4335521695    -1.8097637308     1.4081420954
H      0.1618400044    -6.3029549244    -0.7142053552
H     -4.6353576086    -5.5179353479     2.6208575200
H      5.1331741448    -2.5172645520    -2.0690173016
H      4.4764662200    -1.0715630125    -1.2118900720
H     -6.0496815577    -6.5488902145     0.7676143334
H     -4.7433219752    -6.1755272111    -0.4002444177
H     -7.8138790217     5.3304647910    -0.8914822694
H     -7.4599442858     3.8911570295    -1.8979567708
O      1.2432757226     4.7370080345     4.5311913058
H      1.8139131034     6.1864785451     3.1107550611
H      3.1451275546     5.1458382468     3.7119748883
H      1.2900745613     5.4245944074     5.2189217294
