91
pet config_17500 from config_17500.mcos (coord_rad bohr -> angstrom)
C     -5.6986872677    -1.9376950182    -0.9203888363
C     -6.6095039856    -2.8088367966    -0.2945104504
C     -7.8442724754    -2.3087254770     0.1521406607
C     -8.1641627108    -0.9661111304    -0.0227255789
C     -6.0186507436    -0.5923615463    -1.0939649435
C     -7.2569215323    -0.0935754159    -0.6474487538
C     -6.3079388870    -4.2620815305    -0.0902609864
C     -7.6397385303     1.3443140352    -0.8151192979
O     -6.6438137732     2.0807950002    -1.3704042107
C     -6.9189549877     3.4947677565    -1.5948068128
C     -6.6306400909     4.3392801683    -0.3612337618
H     -7.9756506434     3.6270644848    -1.8761162440
H     -6.2690194652     3.7767431217    -2.4337950858
O     -5.0767125440    -4.6016050127    -0.5418452422
O     -7.0809301336    -5.0595260850     0.4248565418
O     -8.7267784826     1.8053701115    -0.4919526633
H     -4.7370778920    -2.3219065583    -1.2702450600
H     -5.3088326696     0.0815706787    -1.5802034663
H     -8.5480751613    -2.9908819363     0.6381118631
H     -9.1249573418    -0.5731552482     0.3227191983
H      6.4602117947    -3.8577093423     2.6810969452
C      7.8486114115    -0.0739200466    -2.9576084662
C      6.3745851534    -2.7622967278     2.7077367839
C      7.1331812968    -1.0848657689     1.1706368460
C      8.0381002779     0.8808944808    -1.9407056103
C      8.0874772609     0.2544077410    -4.3968722415
C      7.8027467375     0.5345541102    -0.6126652793
C      7.3761113354    -0.7591763270    -0.2711273802
C      7.1850769853    -1.7133840298    -1.2893506834
C      7.4222885165    -1.3681691306    -2.6171506928
C      5.0036614090    -2.3335068849     3.1952560123
O      7.9181346035    -0.5296502674    -5.3214545712
O      7.3591318500    -0.3129948504     2.0933231184
O      6.6338701538    -2.3356960692     1.3379699949
O      8.5184035243     1.5272754890    -4.5857746571
H      8.3686344261     1.8909810191    -2.1949482765
H      6.8531889520    -2.7225086547    -1.0341066913
H      7.2792774686    -2.1021774101    -3.4162854103
H      8.6441530870     1.6517100861    -5.5513855228
H      7.9483571865     1.2684428131     0.1859980044
H      7.1387819473    -2.3398101024     3.3779560205
H      3.6131637175     4.6228811679     1.4195255214
C     -2.9810797815     5.0424190980    -0.0938827878
C      3.3353456338     5.6322634823     1.0783556009
C      1.0937291852     4.7752890185     1.2948534905
C     -2.6368243600     4.1805514169     0.9653213916
C     -4.3893279542     5.1603824630    -0.5886871765
C     -1.3154520886     4.1082708883     1.3989237176
C     -0.3136695880     4.8831988566     0.7917399606
C     -0.6582386911     5.7435868707    -0.2686903740
C     -1.9794950804     5.8168763330    -0.7019815544
C      3.5833685245     6.6575585701     2.1807196335
O     -4.7483893340     5.9546606014    -1.4483734117
O      1.4466579765     3.9926252390     2.1675007287
O      1.9299071749     5.6409791459     0.6687600261
O     -5.2266361896     4.2877102877     0.0274896887
H     -3.4075738219     3.5736274488     1.4461846080
H      0.1124452099     6.3512153853    -0.7488906950
H     -2.2572716286     6.4831122678    -1.5246710101
H     -1.0378295263     3.4433450188     2.2227832594
H      3.8882043602     5.8976159678     0.1652633671
H     -3.3296756913    -5.8286081368    -2.0560605584
C      1.7525774010    -3.5354315132     1.8479627653
C     -3.3529602470    -6.2108405816    -1.0227199390
C     -1.0672666672    -5.6757217553    -0.6119623027
C      2.1949362857    -4.3534571135     0.7907688759
C      2.7116090794    -2.7835645612     2.7192790952
C      1.2678375679    -5.0345819334     0.0061389443
C     -0.1092113664    -4.9201828563     0.2573190269
C     -0.5518444821    -4.1027671461     1.3147432209
C      0.3752963872    -3.4188227979     2.0969388055
C     -4.7051279473    -6.0015293267    -0.3804359153
O      2.3739958093    -2.0309174196     3.6240581135
O     -0.7327934570    -6.3706617540    -1.5628245436
O     -2.3550418957    -5.5089621407    -0.2260820157
O      4.0037001956    -3.0327554154     2.3982623851
H      3.2640612769    -4.4512132811     0.5879005155
H     -1.6209565363    -4.0059183775     1.5181276719
H      0.0427434309    -2.7791252793     2.9203885818
H      1.6002402480    -5.6716921249    -0.8193690201
H     -3.1195008039    -7.2879258007    -1.0360069436
H      4.8531593594    -1.2473216967     3.0986519667
H      4.8892994957    -2.6146713707     4.2556212025
H     -4.6888067996    -6.2535158007     0.6922660570
H     -5.4501681186    -6.6383620995    -0.8845829022
H     -7.1772543129     3.9666669041     0.5153124476
H     -6.9194350685     5.3816595374    -0.5692893412
O      3.3301312148     8.0058190369     1.7572471501
H      4.6500807026     6.6107383143     2.4563709399
H      2.9861144268     6.4022619392     3.0768031952
H      2.3778489454     8.0750806450     1.5616133723
