42
CFCRODHVHXGTPC-UHFFFAOYSA-N optimised
O       -6.900296      1.117001     -0.683783
S       -6.913500     -0.301033     -0.404032
O       -6.698306     -1.332554     -1.381585
O       -8.303172     -0.661102      0.353770
C       -5.731574     -0.628773      1.055250
F       -6.117825     -1.799798      1.616162
F       -5.924082      0.371024      1.951729
C       -4.185945     -0.782071      0.754793
F       -4.008633     -1.906646      0.019125
F       -3.604501     -0.955525      1.977788
C       -3.483518      0.415750      0.035351
F       -3.633721      1.532000      0.792227
F       -4.114310      0.606195     -1.158375
C       -1.944243      0.263540     -0.346804
F       -1.840938     -0.696071     -1.301883
F       -1.606251      1.465930     -0.892767
C       -0.923439     -0.065329      0.798993
F       -1.228141      0.700840      1.884495
F       -1.051583     -1.373886      1.136476
C        0.618318      0.221980      0.515180
F        1.268660     -0.232422      1.624039
F        0.792136      1.565780      0.431024
C        1.262440     -0.453045     -0.746073
F        0.788139      0.158649     -1.861059
F        0.883848     -1.762158     -0.772646
C        2.854175     -0.488355     -0.834879
F        3.122424     -1.038143     -2.052025
F        3.310996     -1.326551      0.129570
C        3.617685      0.879839     -0.724966
F        3.582743      1.299586      0.568779
F        2.965539      1.793376     -1.497138
C        5.126270      0.933872     -1.213059
F        5.140816      0.700861     -2.552358
F        5.525370      2.219061     -0.999090
C        6.227986     -0.013050     -0.595431
F        7.382045      0.298125     -1.248982
F        5.907239     -1.304359     -0.875563
C        6.543520      0.086810      0.940150
F        5.510202     -0.353735      1.681947
F        7.615954     -0.686949      1.202502
F        6.828483      1.354562      1.292071
H       -8.661007      0.176772      0.717666
