88
nitrocellulose conformer_001_frame9 from conformer_001_frame9.cosmo (coord_rad bohr -> angstrom)
C      0.8938489310     2.2785946770    -1.0556832761
C      0.5221923968     0.9375432600    -0.4293243443
H      0.5576486199     1.0163453645     0.6746343282
C      1.5186899789    -0.1578940213    -0.8936798571
H      1.5532888089    -0.1586739818    -1.9991108277
C      1.0361535888    -1.5535187201    -0.4125115376
H      1.2869588768    -1.6835452962     0.6490082624
C     -0.4698363773    -1.7568884215    -0.6841998140
H     -0.6221862051    -1.8531228352    -1.7724334408
C     -1.3373076514    -0.5564643523    -0.2320536281
H     -1.3411555417    -0.4175903533     0.8630368181
O     -0.7983950767     0.6034821707    -0.8799998048
O     -2.6247775794    -0.7604238346    -0.7485024474
C     -3.7684698716    -0.3884214789     0.0456441156
H     -3.6479794335    -0.7389053141     1.0837408668
C     -4.9562013063    -1.1348635312    -0.6235533612
H     -4.9061826813    -0.9488790461    -1.7146569878
O     -6.2019969821    -0.6660965368    -0.0909856774
C     -6.4529359288     0.6741095602    -0.4944519828
H     -6.3676305080     0.7774446396    -1.5930845658
C     -5.4706787903     1.6040426179     0.2556569356
H     -5.7337702841     1.5863304966     1.3224973219
C     -4.0106988170     1.1449671218     0.0167015464
H     -3.7000164316     1.5032510795    -0.9792420692
O     -3.0721353423     1.8863139877     0.8536729359
N     -3.1800286820     1.7182423468     2.3245150620
O     -4.0195750915     0.9502631840     2.7513289549
O     -2.3738812572     2.4012602601     2.9051468001
O     -5.5641607891     2.9428858597    -0.2673853080
N     -6.2441558380     3.9411303517     0.6276619797
O     -6.6082280192     3.5651606570     1.7172063706
O     -6.3149775430     5.0175483209     0.0903608931
O     -7.7409432058     1.0372053078    -0.0501596166
N     -8.8643109983     0.6698368152    -1.0238291362
O     -8.5377772517     0.1983708745    -2.0838599702
O     -9.9371695212     0.9313019634    -0.5511470900
C     -4.8643434623    -2.6321253463    -0.3566546720
O     -5.8272773766    -3.2468302752    -1.2607986207
N     -5.8700684096    -4.6931098131    -1.1597383727
O     -5.1242230242    -5.2234543441    -0.3571379047
O     -6.6754673284    -5.1869879450    -1.9213860277
O     -0.9510329625    -3.0583282673    -0.2396438990
N     -0.9715000173    -3.3132206809     1.2185495419
O     -0.6267188252    -2.4130173776     1.9573001241
O     -1.3515788766    -4.4307359380     1.4669215746
O      1.7818588239    -2.5137010900    -1.2143892837
N      2.2439564955    -3.7371657824    -0.5112843690
O      1.9427002000    -3.8671165852     0.6547313072
O      2.8831429482    -4.4475602279    -1.2480201887
O      2.8013236083     0.1959305292    -0.3541881578
C      3.9433040789    -0.4523705939    -0.9296994679
H      3.6445748755    -0.9877694392    -1.8424632748
C      4.9878964152     0.6321311572    -1.3037071426
H      4.4643869144     1.4945059133    -1.7417720180
C      5.8703488704     1.0962580179    -0.1249000241
H      6.7334687040     1.6578009878    -0.5135997992
C      6.3411302834    -0.0782207321     0.7623613701
H      6.7812878896     0.3222505086     1.6880751918
C      5.2100929811    -1.0769860648     1.0910129264
H      5.6920633794    -2.0092609833     1.4235381868
O      4.4653468985    -1.4657879433    -0.0853056068
C      4.3438260567    -0.5605707213     2.2542426278
O      3.6366345394    -1.7421525390     2.7327826853
N      2.8001980717    -1.4803195618     3.8911994184
O      2.7622878686    -0.3382431740     4.3104776411
O      2.2399754429    -2.4781653682     4.2940359140
O      7.3350084740    -0.8661099138     0.0553596301
N      8.7196529141    -0.3462627061     0.1679953672
O      8.8842748554     0.6682505424     0.8122250208
O      9.5050680771    -1.0475463227    -0.4217360875
O      5.1070818335     1.9409725466     0.7668088306
N      5.1760313783     3.4080695341     0.4448692423
O      4.5419223450     4.0569098632     1.2363171941
O      5.8274734668     3.7294841471    -0.5220554607
O      5.9148039390     0.0911058483    -2.2788787387
N      5.5029641172     0.3044679390    -3.6989292776
O      4.4558086062     0.8807248346    -3.8974492069
O      6.3168988781    -0.1511337821    -4.4633993316
O      0.1266988193     3.2833949976    -0.3333636555
N      0.3371743838     4.6306617006    -0.8259713649
O      1.1035331201     4.7755262125    -1.7609300783
O     -0.3061424993     5.4553307316    -0.2100973119
H      1.9685932354     2.4669458551    -0.9237759292
H      0.6261586294     2.2909790701    -2.1248297048
H     -5.1252400969    -2.8608506745     0.6895230593
H     -3.8503194067    -2.9882169327    -0.5916625956
H      4.9890246490    -0.1701560177     3.0578163809
H      3.6224903040     0.2046203939     1.9374404590
