88
nitrocellulose conformer_026_frame434 from conformer_026_frame434.cosmo (coord_rad bohr -> angstrom)
C     -0.8796071995     2.5788635251    -0.9363411356
C     -0.4531117690     1.1165510692    -0.9971623477
H     -0.7468772474     0.6897250690    -1.9766228429
C     -1.1214222211     0.2960562194     0.1332538757
H     -0.8818077304     0.7624337373     1.1067893391
C     -0.5622630388    -1.1542499502     0.1250345950
H     -1.0564086109    -1.7358073560    -0.6667142770
C      0.9825016724    -1.1802481884    -0.0128646960
H      1.4031243795    -0.8071188657     0.9351566603
C      1.4782469803    -0.2547184527    -1.1573649563
H      1.0783247128    -0.5726111428    -2.1329371025
O      0.9727843401     1.0505040452    -0.8382385800
O      2.8640349018    -0.2097725302    -1.3622792988
C      3.8158549909     0.0782629751    -0.3078778533
H      3.3695615058     0.0068265688     0.6933135038
C      4.3970849854     1.5142904751    -0.5164977583
H      4.6135576554     1.6399386218    -1.5966423145
O      5.5984647874     1.6834617318     0.2561474418
C      6.6512395326     0.8631065718    -0.2238159326
H      6.8029162261     1.0102893001    -1.3109718005
C      6.3185907764    -0.6051639853     0.1163388331
H      6.3216036642    -0.7208826047     1.2098886716
C      4.9477780376    -0.9682792165    -0.5023854092
H      5.0883117183    -1.0728427399    -1.5925567623
O      4.5625665198    -2.3340510823    -0.1797917212
N      4.3238034833    -2.6536383721     1.2447015728
O      4.3317404567    -1.7348225444     2.0418809133
O      4.1433864034    -3.8333239513     1.4121136857
O      7.2817769899    -1.4866429674    -0.4935072299
N      8.2837855543    -2.0945797356     0.4456135060
O      8.1777332880    -1.8428485924     1.6231071264
O      9.0731047644    -2.7788550003    -0.1556014447
O      7.8213768598     1.1785455248     0.4983731908
N      8.6085097007     2.3574562159    -0.0765851346
O      8.2078661245     2.8319825945    -1.1097882496
O      9.5454186489     2.6255515481     0.6260092314
C      3.4654932868     2.6562498301    -0.1286320186
O      3.1398689001     2.4624978567     1.2804779345
N      2.3000478291     3.5021368410     1.8294767010
O      1.9573195224     4.4015943690     1.0827094559
O      2.0445089713     3.3240735562     3.0027434823
O      1.5088694754    -2.5346333476    -0.0244704149
N      1.2164828055    -3.3695048655    -1.2171394323
O      1.6899066813    -4.4723410028    -1.1101421081
O      0.5673581883    -2.8686041033    -2.1118896439
O     -0.9076300596    -1.7019718925     1.4286104620
N     -1.3301589064    -3.1263960899     1.4537607105
O     -1.3242678015    -3.7362715486     0.4078386162
O     -1.6317998828    -3.4701414102     2.5703279030
O     -2.5350151449     0.3479115378    -0.1097565516
C     -3.3899605489    -0.0963023583     0.9483204435
H     -2.8254978316    -0.1759226733     1.8886422600
C     -4.5069814733     0.9624734056     1.1410295438
H     -4.0618735008     1.9660558465     1.0788569878
C     -5.6715308333     0.8443681882     0.1330531688
H     -6.5302654138     1.4412383976     0.4785723803
C     -6.0995771046    -0.6205520730    -0.1168117594
H     -6.7596763678    -0.6608333555    -0.9974182760
C     -4.9009853925    -1.5752628967    -0.3101408521
H     -5.2714298140    -2.5966066486    -0.1416345069
O     -3.8906639611    -1.4007345851     0.7121641217
C     -4.3621338504    -1.4796393615    -1.7540296521
O     -3.3190106150    -2.4574605165    -2.0056176223
N     -3.8092572263    -3.7965457111    -2.3496150719
O     -5.0132276958    -3.9674852168    -2.3764955723
O     -2.9058258567    -4.5696729631    -2.5766651614
O     -6.8136416821    -1.1426372586     1.0377666716
N     -8.2672724103    -0.8633683308     1.0385951914
O     -8.7170191664    -0.2295770334     0.1066842216
O     -8.8094153599    -1.3350202865     2.0093626131
O     -5.2066439550     1.3929739425    -1.1214008860
N     -6.0803570445     2.4774542479    -1.7138855566
O     -5.6293951369     2.8609189672    -2.7619161230
O     -7.0623646111     2.8057339417    -1.0925566840
O     -4.9894986527     0.7214627581     2.4893316653
N     -5.5079138775     1.9312665945     3.1776782417
O     -5.5020211769     2.9729958960     2.5570976011
O     -5.8709801429     1.6791022710     4.3007610650
O     -0.3650575399     3.1815026478    -2.1580786544
N     -0.7194579286     4.5813747168    -2.3015819131
O     -1.3895244204     5.0854585231    -1.4193589205
O     -0.2801264397     5.0674810067    -3.3229391642
H     -1.9772678273     2.6401703647    -0.9190159055
H     -0.4529576534     3.0853371327    -0.0554893613
H      2.5503814768     2.6213285106    -0.7346705561
H      3.9917333209     3.6136077858    -0.2637782187
H     -5.1850547972    -1.6164518402    -2.4728604619
H     -3.8528348830    -0.5273764264    -1.9497826314
