88
nitrocellulose conformer_011_frame199 from conformer_011_frame199.cosmo (coord_rad bohr -> angstrom)
C      0.4816161891    -2.1175161949    -0.6247203874
C      0.2700464937    -0.6824677107    -0.1567936023
H      0.3121810082     0.0015135263    -1.0269080465
C      1.3611688112    -0.2709746371     0.8651631718
H      1.3610386879    -0.9999869117     1.6972483121
C      1.0373492319     1.1382029998     1.4419334800
H      1.3257677279     1.9098171832     0.7142024625
C     -0.4479608217     1.2534391599     1.8542448380
H     -0.6279129349     0.5924628604     2.7186755013
C     -1.3948269705     0.7537321624     0.7381850106
H     -1.3084574812     1.3264692815    -0.2036380779
O     -1.0140510281    -0.6073822520     0.4841085612
O     -2.6916980810     0.7773338495     1.2649412179
C     -3.7468065352     0.2984557396     0.4007498773
H     -3.3308280253    -0.2264181396    -0.4701709989
C     -4.6367315995     1.4796925848    -0.0740449533
H     -4.9250762084     2.0878006056     0.8075849186
O     -5.8083599862     0.9574848643    -0.7272821677
C     -6.6573395182     0.2766261057     0.1875798299
H     -6.9179272368     0.9310759875     1.0424813679
C     -5.9649056368    -1.0246952516     0.6616484024
H     -5.8686937520    -1.7094229201    -0.1927443404
C     -4.5907682250    -0.6639836719     1.2700500101
H     -4.7635600775    -0.1679686044     2.2409391300
O     -3.8506086630    -1.8299542598     1.7282504784
N     -3.3828576723    -2.7884834521     0.7083581854
O     -3.6841365918    -2.5832956259    -0.4504289765
O     -2.7444998369    -3.6848429579     1.2042613015
O     -6.7369427538    -1.6294584011     1.7162076816
N     -7.4858514452    -2.8742195066     1.3341902593
O     -7.3453838835    -3.2936767106     0.2094003720
O     -8.1369785242    -3.2830446987     2.2624254403
O     -7.8134625333    -0.1289556269    -0.5100493475
N     -8.9106751347     0.9369338755    -0.5717718682
O     -8.7188528968     1.9569280581     0.0411364808
O     -9.8300713866     0.5604277263    -1.2470214647
C     -3.9613585358     2.4395556913    -1.0483801718
O     -3.4432494767     1.6394468036    -2.1486568110
N     -2.8368484147     2.4337811753    -3.2088271870
O     -2.8235877824     3.6408472747    -3.0632427883
O     -2.4164374664     1.7480643625    -4.1153672670
O     -0.7666256594     2.5420119624     2.4528211122
N     -0.7477755065     3.7217428356     1.5717328694
O     -0.9700058791     4.7385409176     2.1817539437
O     -0.5329020459     3.5412605776     0.3884197615
O      1.8565634998     1.2562264472     2.6374003882
N      2.4593248674     2.5910848648     2.8908295361
O      2.1981894173     3.4845948138     2.1159616656
O      3.1527942997     2.5749251382     3.8776022122
O      2.6161018707    -0.3051688536     0.1711826708
C      3.7993595547    -0.3151559154     0.9820658705
H      3.5256830199    -0.4787149190     2.0344234012
C      4.7069756312    -1.4833993233     0.5137554469
H      4.0754769947    -2.3577746366     0.2976823663
C      5.5859058864    -1.1532673473    -0.7119627542
H      6.3703704990    -1.9185905316    -0.8152054242
C      6.2114592037     0.2574325470    -0.6310798830
H      6.6506619654     0.5148405635    -1.6067567765
C      5.2016094097     1.3391573145    -0.1906492116
H      5.7873883635     2.2082625945     0.1461475133
O      4.4554900557     0.9419469311     0.9824129985
C      4.3324905084     1.7942134192    -1.3769092879
O      3.7631750659     3.0642689272    -0.9433474248
N      2.9324233509     3.6957744995    -1.9537872092
O      2.7921812797     3.1110260071    -3.0120283144
O      2.4824794973     4.7605742990    -1.5853209637
O      7.2449183790     0.2859940672     0.3892460671
N      8.5693945787    -0.1953853061    -0.0688467533
O      8.6607098985    -0.5671939786    -1.2200165447
O      9.3919175902    -0.1359043376     0.8125392625
O      4.7754409786    -1.1314585918    -1.9083358690
N      4.7665772453    -2.4233245184    -2.6844449839
O      4.0899135057    -2.3269423845    -3.6752729262
O      5.4075633098    -3.3431440305    -2.2327179649
O      5.6416098224    -1.8175021514     1.5711942080
N      5.1561840452    -2.8753384216     2.5075584827
O      4.0529707965    -3.3355694918     2.3101855797
O      5.9790591850    -3.1194316998     3.3549361359
O     -0.4078908227    -2.2903580659    -1.7645184654
N     -0.3459445667    -3.6179326417    -2.3455878260
O      0.4117357974    -4.4215009747    -1.8336388882
O     -1.0876510090    -3.7418834545    -3.2980301885
H      1.5252403480    -2.2531542368    -0.9423505069
H      0.2235529036    -2.8328467658     0.1726660681
H     -3.1393733030     2.9775854633    -0.5525317869
H     -4.7046349202     3.1623983687    -1.4188388930
H      4.9647120835     1.9603961110    -2.2641027392
H      3.5276888994     1.0836594201    -1.6085314372
