88
nitrocellulose conformer_024_frame419 from conformer_024_frame419.cosmo (coord_rad bohr -> angstrom)
C     -1.0273898017     2.4503002344    -1.0634760088
C     -0.5790571537     0.9934269178    -1.0827844245
H     -0.8548750552     0.5372722164    -2.0542371302
C     -1.2430661117     0.1909569991     0.0633617197
H     -1.0133699019     0.6862513130     1.0251646891
C     -0.6579441867    -1.2484749266     0.0926411218
H     -1.1233553635    -1.8512906574    -0.6996220583
C      0.8887722500    -1.2494995509    -0.0193046586
H      1.2878433504    -0.8435363132     0.9244079050
C      1.3820327750    -0.3458165421    -1.1820755808
H      1.0021308056    -0.6985948895    -2.1535902292
O      0.8463642657     0.9572300654    -0.9064102471
O      2.7692397291    -0.2778765232    -1.3697276535
C      3.7015777605     0.0491188866    -0.3092079116
H      3.2435768794    -0.0103478493     0.6874489223
C      4.2596756237     1.4906015207    -0.5394785386
H      4.4910050186     1.5969005119    -1.6187481975
O      5.4448819609     1.6976924853     0.2488717242
C      6.5212158127     0.8889304604    -0.1972961188
H      6.6910657479     1.0211158661    -1.2835416190
C      6.2105255223    -0.5799049019     0.1612249177
H      6.2017867596    -0.6790154556     1.2563616914
C      4.8549760703    -0.9794180022    -0.4686200272
H      5.0123069959    -1.1012185585    -1.5546575148
O      4.4903573365    -2.3459545083    -0.1256966290
N      4.2369419782    -2.6428562862     1.3014276033
O      4.2163671299    -1.7089893628     2.0806268909
O      4.0767342085    -3.8223377727     1.4891891532
O      7.1984098352    -1.4515923132    -0.4227425435
N      8.1950587964    -2.0320211456     0.5390541840
O      8.0656153774    -1.7693477742     1.7118184754
O      9.0054809794    -2.7092489856    -0.0417007529
O      7.6714856958     1.2383572233     0.5411522134
N      8.4480232866     2.4212950270    -0.0398288980
O      8.0592292216     2.8696723496    -1.0891105982
O      9.3658334486     2.7194004222     0.6757680665
C      3.3010812600     2.6227838892    -0.1907949501
O      2.9604421595     2.4551858799     1.2181429617
N      2.0949592751     3.4914375242     1.7324731499
O      1.7441112862     4.3661332757     0.9604535048
O      1.8290717088     3.3365354991     2.9067175397
O      1.4400849747    -2.5937862074     0.0134438275
N      1.1847614936    -3.4651564015    -1.1623936041
O      1.6760765716    -4.5556182317    -1.0178723799
O      0.5428703650    -2.9999228463    -2.0812913799
O     -1.0186913809    -1.7827989544     1.3958810965
N     -1.4258622182    -3.2127508926     1.4303547687
O     -1.4029710566    -3.8315019835     0.3897722306
O     -1.7349903557    -3.5494258712     2.5466363846
O     -2.6569932688     0.2058175489    -0.1796541479
C     -3.5022654676    -0.1489280024     0.9238044300
H     -2.9066434021    -0.1914832045     1.8473967529
C     -4.5894487437     0.9469434279     1.0817660650
H     -4.1269435755     1.9310008625     0.9160732271
C     -5.8067269978     0.7763879710     0.1476498282
H     -6.6277098038     1.4221530737     0.4942777896
C     -6.2745703688    -0.6926508842     0.0480486524
H     -7.0056884827    -0.7878205064    -0.7689968508
C     -5.1055183910    -1.6809827838    -0.1546025989
H     -5.4841452451    -2.6827854282     0.1006004569
O     -4.0345194285    -1.4568842230     0.7905349051
C     -4.6580490757    -1.7113198091    -1.6275567488
O     -3.9233174581    -2.9639944303    -1.7569965734
N     -3.4241607721    -3.2009102533    -3.1003601477
O     -3.6484151465    -2.3502829752    -3.9416186414
O     -2.8350812932    -4.2571577994    -3.1968882822
O     -6.8879426096    -1.1044249771     1.2984391124
N     -8.3155965948    -0.7286023716     1.4321508938
O     -8.8203671882    -0.1179109794     0.5134985664
O     -8.7778622482    -1.1097552405     2.4798614251
O     -5.4495497469     1.1355817313    -1.2066754132
N     -5.6949595642     2.5783239192    -1.5537619420
O     -5.3982933341     2.8061889756    -2.6980868509
O     -6.1359561055     3.2875400434    -0.6792849446
O     -5.1299460608     0.8933026615     2.4258578134
N     -4.4389141498     1.7904772222     3.4026764743
O     -3.5113193378     2.4544103354     2.9951286013
O     -4.9389033552     1.7101017860     4.4971265159
O     -0.5054012020     3.0304416372    -2.2927798371
N     -0.8563145759     4.4284696553    -2.4622952593
O     -1.5291233248     4.9492396725    -1.5919644050
O     -0.4114087218     4.8957572983    -3.4899485820
H     -2.1255842733     2.4971192808    -1.0621812070
H     -0.6192113416     2.9836559925    -0.1897878034
H      2.3951416556     2.5554965078    -0.8078981878
H      3.8102965025     3.5870441830    -0.3412099521
H     -5.5372634549    -1.7321749501    -2.2915051618
H     -4.0056762068    -0.8666288452    -1.8858002652
