84
nylon6 config_30460 from config_30460.mcos (coord_rad bohr -> angstrom)
N      4.6554513484     1.3115589421     1.1004303674
C      4.0462930640     2.4443351517     1.8070225757
C      2.5500092103     2.2240676176     2.0697281916
H      4.2055501132     3.3570707350     1.2052440576
H      4.5741995172     2.6035675649     2.7669214090
C      1.6638112479     2.2701944653     0.8122674225
H      2.2207545132     3.0104474951     2.7744345779
H      2.4073637794     1.2609610078     2.5974975950
C      0.1708747634     2.1149865252     1.1472278049
H      1.9663319357     1.4759009775     0.1041079323
H      1.8269904895     3.2325108620     0.2888617323
C     -0.7257094778     2.1568065605    -0.1104965446
H     -0.1359497108     2.9212769716     1.8410167368
H      0.0037353067     1.1595901313     1.6771322647
C     -2.2023369570     1.9820573629     0.2365294546
H     -0.4494161527     1.3304521185    -0.7889884785
H     -0.5637927195     3.1035373584    -0.6558142297
O     -2.6667233432     0.8811131956     0.6023453301
H      1.4008600097    -4.3668096195     0.5193388153
H     -0.3641308422    -2.5405763083     3.3340801764
H     -0.5111416115    -4.5277521779     1.9495496550
H     -2.6053731694    -1.6681178996     3.4163993466
H      0.6423300836    -2.6974050580    -1.1233322270
C     -0.4168465951    -3.5637623008     1.4160161184
C     -0.8654965499    -2.4290693705     2.3544661144
C     -2.3866403659    -2.3744911854     2.5943595298
C      1.1418613793    -2.3380683518    -0.2070661281
C      2.5788533774    -1.9149804180    -0.5010505318
C      1.0307188913    -3.3997424115     0.9062573744
N     -3.1253896125    -1.9519621750     1.4023891532
O      3.3343688254    -1.4914457744     0.4011724833
H     -0.5424630882    -1.4477882882     1.9566198482
H      1.6972282350    -3.1169665236     1.7415836022
H     -2.7769393036    -3.3632571941     2.8866405098
H      0.6168254856    -1.4152231552     0.1036371142
H     -1.1033063498    -3.6254671710     0.5493129712
H     -5.0894072181     2.3869821643    -1.4368430028
H     -4.6344258539     2.2445724199     1.0319813564
C     -6.7656355189     3.3644205183    -0.4412883875
C     -5.2709455593     3.2670779643    -0.7912182937
C     -4.3901965944     3.1584130090     0.4670866031
C     -4.6912130272    -2.1002687946    -0.4659678772
C     -4.0250111047    -2.7363689203     0.7559361737
N     -2.9595761071     3.1032960580     0.1559904470
O     -4.3005934749    -3.9010859034     1.1092864211
H     -4.9658437395     4.1571149535    -1.3748396694
H     -4.5680732126     4.0256228980     1.1290221810
H      7.7080424691     0.8275482894    -1.6154368114
H      3.9287431541     0.3934075399    -1.3908847307
H      6.1227562144     0.3420567065    -3.5556170266
H      5.0500507491    -1.9320137637    -1.5648763734
H      5.6599736430    -0.7211456996     0.1041166248
C      5.7625463995     0.5849952952    -2.5381919977
C      4.3521144007    -0.0023411583    -2.3284291078
C      4.2885736459    -1.5412643207    -2.2592715688
C      6.4129390988     0.0702996906    -0.0444840173
C      5.8921666836     1.3819852744     0.5428527406
C      6.8465576289     0.1418299595    -1.5255172557
N      2.9756321381    -2.0084508820    -1.7935999006
O      6.5657934267     2.4317503672     0.5370410261
H      3.6873568776     0.3469706732    -3.1398783315
H      7.2262268744    -0.8591220430    -1.8000231141
H      4.4732723260    -1.9961589483    -3.2461735927
H      7.2962959846    -0.2065705719     0.5608696550
H      5.6709847034     1.6873249539    -2.5098662907
H      2.3019367135    -2.3218061117    -2.4883052517
H      4.1501705124     0.4206316849     1.0541344731
H     -2.5117503649     3.9602885416    -0.1624118315
C     -4.4067820834    -2.8869488164    -1.7624733575
H     -5.7810019029    -2.1010675831    -0.2736435169
H     -4.3754249141    -1.0485437989    -0.5780133305
H     -2.9613477954    -0.9966104216     1.0612076823
C     -5.1668647552    -2.3181783937    -2.9692206493
H     -4.6842517079    -3.9438831086    -1.6030634029
H     -3.3191857462    -2.8741881526    -1.9652227387
H     -6.2581630662    -2.3498341506    -2.8023676127
H     -4.9500558166    -2.8945005236    -3.8851730132
H     -4.8881375101    -1.2668393243    -3.1618608720
C     -7.6600362810     3.4831769415    -1.6853462878
H     -6.9292507694     4.2378094074     0.2189155153
H     -7.0617927217     2.4748260337     0.1469025435
H     -7.4067335334     4.3830332102    -2.2738298315
H     -8.7263564570     3.5526163984    -1.4095608468
H     -7.5414817816     2.6068064541    -2.3471033957
