84
nylon6 config_87100 from config_87100.mcos (coord_rad bohr -> angstrom)
N      2.5808930415    -1.4799180524     2.2951712920
C      3.9928675842    -1.2889571639     2.6324106720
C      4.8128978320    -0.6922799985     1.4724569766
H      4.3962089096    -2.2749805733     2.9155840987
H      4.0504480698    -0.6293029771     3.5167011958
C      6.2875649548    -0.4877226394     1.8583245236
H      4.3667258552     0.2740725708     1.1692539780
H      4.7404521328    -1.3652145252     0.5974752463
C      7.1251832917     0.1041354706     0.7123886571
H      6.7262127412    -1.4566286610     2.1674863748
H      6.3476257596     0.1766493351     2.7428864174
C      8.6048188998     0.2986060078     1.1026141109
H      6.6957447364     1.0769426961     0.4038762920
H      7.0755035331    -0.5597415053    -0.1698167331
C      9.4583320897     0.7554562338    -0.0813011548
H      9.0222943637    -0.6680856578     1.4414051884
H      8.6886200444     1.0048173781     1.9476490825
O      9.5753696319     0.0600045162    -1.1073957997
H     -6.8230261562    -1.1167860012    -2.7102679635
H     -8.9402418244     0.2966569229    -3.1520144201
H     -6.8035414578     1.3916120621    -2.3849186914
H    -10.5342519534     2.0389334422    -2.5567738831
H     -4.6721161611    -0.0363335768    -1.9462387934
C     -7.3770716401     0.7310631106    -1.7044356692
C     -8.8535744067     0.7200259216    -2.1328664480
C     -9.5136778961     2.1131519486    -2.1474612122
C     -5.2712826349    -0.6553022329    -1.2549134509
C     -4.6898945850    -2.0648459758    -1.1342091998
C     -6.7489058882    -0.6722892579    -1.6985828066
N     -9.6212663570     2.7284215612    -0.8209607655
O     -5.1489546221    -2.8889120559    -0.3216492524
H     -9.4358768296     0.0565355670    -1.4659169457
H     -7.3168651818    -1.3331402664    -1.0186889389
H     -8.9365769518     2.8010056922    -2.7909212595
H     -5.1969603893    -0.1933042585    -0.2529268952
H     -7.2844199257     1.1698756891    -0.6919976832
H     12.6452871604     1.2768380681    -0.5887165045
H     10.6776322358     2.0993552248    -1.9185032077
C     13.3292226361     3.0135210083    -1.7151054981
C     12.4325155439     2.3610919927    -0.6492669988
C     10.9355438175     2.5620551214    -0.9517269706
C    -10.6490256309     3.3311104654     1.3175543951
C    -10.7242381099     2.6178727122    -0.0326109545
N     10.0599260907     1.9666610949     0.0600035695
O    -11.7342444000     1.9770107025    -0.3777186238
H     12.6642878174     2.7863467833     0.3462764021
H     10.7033359703     3.6402848408    -1.0172466647
H      0.7633147661    -2.3045777486    -0.5643675690
H     -0.9839761335    -2.8159918640    -2.3508645794
H     -1.6985942198    -2.1930540875     0.0142383542
H     -3.4981045155    -4.3076702103    -1.3356200517
H      0.1149979567    -1.6708080479     1.7913099066
C     -1.2048937080    -3.1577124546    -0.2112109032
C     -1.4755099697    -3.5428977743    -1.6748149413
C     -2.9701253461    -3.6383804862    -2.0342106564
C      0.5609015512    -2.6576999104     1.5742906547
C      2.0517270250    -2.6731679618     1.9135451182
C      0.2956236269    -3.0512777803     0.1060906707
N     -3.6574129673    -2.3458702541    -1.9745033481
O      2.7266176078    -3.7168103107     1.8395664279
H     -1.0166490116    -4.5260115799    -1.8930418147
H      0.7935900737    -4.0170550469    -0.0977709342
H     -3.0823977068    -4.0553445470    -3.0520640247
H      0.0737926019    -3.3922688515     2.2422635092
H     -1.6676397893    -3.9097888237     0.4574205065
H     -3.3541573641    -1.6198314913    -2.6208930736
H      1.9724786544    -0.6646519840     2.3116831173
H      9.9342009138     2.4690176914     0.9358437060
C    -10.7577596477     2.3483747814     2.5027928827
H     -9.7222560447     3.9266156988     1.4002665108
H    -11.4983326073     4.0387708339     1.3527758177
H     -8.8318273067     3.2666424451    -0.4730470215
C    -10.7933498965     3.0711505308     3.8568964886
H     -9.9026537425     1.6470713399     2.4744613466
H    -11.6696019874     1.7389962123     2.3731691305
H    -11.6589416200     3.7539566786     3.9205084382
H     -9.8801003053     3.6715851667     4.0167294874
H    -10.8703129630     2.3517506455     4.6901570798
C     14.8272738676     2.8241613743    -1.4289963236
H     13.0960583028     4.0940275738    -1.7763653586
H     13.0834778512     2.5895433775    -2.7076978237
H     15.0948847845     1.7528982940    -1.3974715564
H     15.1064759149     3.2670239116    -0.4562796925
H     15.4495064396     3.3018846207    -2.2052981259
