84
nylon6 config_16620 from config_16620.mcos (coord_rad bohr -> angstrom)
N     -0.9722637879    -1.2929898199    -0.3125062960
C     -2.1154938281    -2.0958467279     0.1260353871
C     -2.6386432758    -3.0435431431    -0.9762049227
H     -2.9059410011    -1.3929047942     0.4326180183
H     -1.8122962385    -2.6704503289     1.0180824168
C     -4.0415194804    -3.6165421071    -0.6813855091
H     -1.9226374745    -3.8744266763    -1.1140284390
H     -2.6482564154    -2.4899463135    -1.9312215763
C     -5.1459198717    -2.5536475918    -0.4896147884
H     -3.9996482494    -4.2444231492     0.2290973943
H     -4.3248616042    -4.2985477218    -1.5056508810
C     -5.3212152033    -1.6075827079    -1.7061848530
H     -4.9261285137    -1.9491662986     0.4088307916
H     -6.1059164070    -3.0587689821    -0.2817142415
C     -6.0454503932    -0.3199003015    -1.3162708592
H     -5.9066322638    -2.1062779703    -2.4963004824
H     -4.3359041965    -1.3488398837    -2.1285025844
O     -7.2904019343    -0.2382801232    -1.2859120429
H      6.9964066821     0.6386867004    -1.4602020895
H      6.0550140237    -1.6759989913    -2.1158148746
H      4.6098628629     0.0631624606    -0.9569969310
H      4.6585994275    -3.6239006079    -1.7741766610
H      6.1877217583     1.5886098777     1.3631736570
C      5.4291467235    -0.4584775999    -0.4239492037
C      5.6721096365    -1.8237913210    -1.0878888261
C      4.4199069400    -2.7127599004    -1.1948026729
C      6.5020163378     1.7659668088     0.3194077923
C      5.5209926988     2.7067678140    -0.3900860400
C      6.6868773052     0.4273666486    -0.4204933089
N      3.8861122943    -3.1076107989     0.1130312348
O      5.5934019306     2.9253122400    -1.6129153251
H      6.4659619434    -2.3694934433    -0.5412221137
H      7.5224056457    -0.1199922515     0.0550214885
H      3.6070189458    -2.1846850728    -1.7178469632
H      7.4705635459     2.2982439007     0.3608953557
H      5.0813012380    -0.6060167501     0.6163431574
H     -4.7309291850     1.9023440942     1.4458797951
H     -5.0603624734     2.7866295864    -0.9049278725
C     -6.2399770066     3.4707788077     1.5277210281
C     -5.7450796197     2.0962190601     1.0469180187
C     -5.7120643591     1.9962177035    -0.4909899715
C      2.2570033319    -3.3837429704     1.9140160689
C      2.6099257559    -2.8933535498     0.5134018776
N     -5.2219803248     0.7053231148    -0.9751609153
O      1.7680638744    -2.3136118274    -0.2083190926
H     -6.4007053628     1.2983905038     1.4444732154
H     -6.7261981209     2.1432745143    -0.8991065594
H     -0.3631181673     2.5773727234    -0.4870341344
H      1.4424259829     4.5461357784    -0.0479039911
H      1.7875249269     2.8409638827    -1.8097361970
H      3.7034274780     5.1921146744     0.5126950537
H      0.0576750558     0.9555551917    -2.3378937594
C      1.8040635526     2.5144978485    -0.7515952766
C      2.1439892390     3.7136554835     0.1484510756
C      3.5779435321     4.2442493836    -0.0420341639
C      0.1706645770     0.6259272598    -1.2889187994
C     -1.1218874879    -0.0809953184    -0.8927571533
C      0.4648508143     1.8502210621    -0.3942855290
N      4.5929395385     3.2910960238     0.4150900819
O     -2.2388502412     0.4600304820    -1.0761218380
H      2.0031207566     3.4354272314     1.2115177635
H      0.4900732428     1.5314468327     0.6653991403
H      3.7864824576     4.4450465167    -1.1054370408
H      1.0166409790    -0.0814227842    -1.2452365847
H      2.6091123073     1.7587590428    -0.6718601678
H      4.6019819185     3.0548633787     1.4056506687
H     -0.0235171830    -1.6860214577    -0.2130888956
H     -4.2042871732     0.5519503896    -0.9976616481
C      1.9698366474    -2.2167237184     2.8846867621
H      1.3509969006    -4.0096663500     1.8178610171
H      3.0598153614    -4.0247692208     2.3196556541
H      4.5069896626    -3.6100242009     0.7453387256
C      1.5240115414    -2.7117731358     4.2678600154
H      1.1901374156    -1.5710297945     2.4436990166
H      2.8783261075    -1.5938518928     2.9832838936
H      0.5988134387    -3.3101960055     4.1969934830
H      1.3262754976    -1.8652353185     4.9475159206
H      2.2984605819    -3.3440577429     4.7371160910
C     -6.2789617531     3.5885499671     3.0595768903
H     -7.2493984358     3.6598899359     1.1143992041
H     -5.5851740230     4.2602915392     1.1108755240
H     -5.2760818256     3.4356261507     3.4968650428
H     -6.9540258030     2.8334468350     3.5005052378
H     -6.6352372345     4.5831199289     3.3790673814
