84
nylon6 config_40830 from config_40830.mcos (coord_rad bohr -> angstrom)
N      3.9366447934    -2.4512859423    -0.2499910325
C      4.9405455339    -3.2254359782    -0.9845284773
C      6.3445270449    -3.1459007740    -0.3558192763
H      4.9507989729    -2.8313091815    -2.0137929058
H      4.6118473082    -4.2799676747    -1.0291045131
C      6.9822385390    -1.7483127999    -0.4189412507
H      6.9884022601    -3.8739404079    -0.8849965885
H      6.2924133908    -3.4875224379     0.6965910038
C      8.3720173637    -1.6992618878     0.2366140850
H      6.3200560797    -1.0153124819     0.0799350836
H      7.0596879922    -1.4302866855    -1.4772562360
C      9.0019492776    -0.2918527061     0.1736006415
H      9.0446245596    -2.4242576471    -0.2618548858
H      8.2984212545    -2.0094091594     1.2949430860
C     10.3332445686    -0.2228248360     0.9231282689
H      8.3236053921     0.4330356502     0.6604548303
H      9.1211730970     0.0253693653    -0.8777592379
O     10.3966805908    -0.4143123775     2.1518623804
H     -6.4226787616     0.3307004689    -0.1688803389
H     -8.9244380861     0.1227481892     0.4578746661
H     -8.1925848756     0.1310345778    -1.9658458349
H    -10.6863057356    -0.0841127767    -1.3213883610
H     -5.6700144832     0.3326484223    -2.5774498651
C     -8.1093226601     1.0432283500    -1.3428697363
C     -9.1424519601     0.9808387003    -0.2053570280
C    -10.5802447823     0.8477161199    -0.7421407705
C     -5.6369404271     1.2576922280    -1.9750674563
C     -4.2223276266     1.5286888469    -1.4616450527
C     -6.6669376313     1.1855169217    -0.8287589951
N    -11.5870654540     0.8122807604     0.3203883332
O     -3.9417904675     2.5732446606    -0.8446875728
H     -9.0687668794     1.8922038514     0.4183405927
H     -6.5773195300     2.0987006501    -0.2126388873
H    -10.8143650553     1.6944347696    -1.4122498481
H     -5.8977189401     2.0964062283    -2.6471042901
H     -8.3444066423     1.8966085752    -2.0088710957
H     13.4248695139     1.7183978066    -0.6864390625
H     12.7386892083    -0.0653125034     1.7488282821
C     12.7831330231     2.6779136067     1.1602484750
C     13.4398692200     1.5123169609     0.4023329799
C     12.7930722530     0.1401694314     0.6673111160
C    -13.1723212404    -0.1570619871     1.9126004932
C    -12.1561657895    -0.3329044249     0.7835782428
N     11.4232368299     0.0477148557     0.1554725820
O    -11.8882871806    -1.4554991887     0.3163698617
H     14.5073356841     1.4377983661     0.6856445557
H     13.4040823984    -0.6564570616     0.2032925758
H      0.8334678154    -0.3635708402    -1.4093172876
H     -1.9335520642    -1.1919679883    -0.1073235708
H      0.1110698215     1.0293628580     0.5724352977
H     -1.2818156535     0.2306795627    -2.1100530668
H      2.5569371152     0.3271279912     0.2946373406
C     -0.1859356503    -0.0354208884     0.5011910443
C     -1.6487747245    -0.1303672499     0.0222653378
C     -1.9058944900     0.6315678259    -1.2936573508
C      2.2531352884    -0.7299506465     0.1779126695
C      3.2714823610    -1.3799177488    -0.7604383249
C      0.8193708179    -0.7871193786    -0.3895637056
N     -3.3047337659     0.5600708665    -1.7233502836
O      3.4607581096    -0.9482195413    -1.9127699692
H     -2.3180705734     0.2830644375     0.7984367849
H      0.5024620235    -1.8435356897    -0.4866158023
H     -1.6563901595     1.6978152227    -1.1653528204
H      2.2854756694    -1.1917176074     1.1807585865
H     -0.1251185540    -0.4386280209     1.5304086829
H     -3.6101787976    -0.2764034992    -2.2154251654
H      3.7085489136    -2.7509220663     0.6961187558
H     11.2846030502     0.1735319913    -0.8455376989
C    -14.5841093987    -0.6292663658     1.5058355620
H    -12.8150998173    -0.7688764531     2.7621409317
H    -13.2059343322     0.8921680996     2.2564890242
H    -11.8413927303     1.6919178790     0.7640694521
C    -15.5796232777    -0.5593608210     2.6726588145
H    -14.5138208967    -1.6641267530     1.1269775279
H    -14.9478563421    -0.0089463348     0.6651264164
H    -15.2531742660    -1.1976549092     3.5125963761
H    -16.5822505621    -0.8995295702     2.3614935951
H    -15.6800142029     0.4721937415     3.0547151011
C     13.4419270034     4.0312751590     0.8521784105
H     12.8339125978     2.4770171679     2.2476917045
H     11.7081406891     2.7225317573     0.9040483019
H     14.5102765574     4.0307924960     1.1343132761
H     12.9520998179     4.8531919175     1.4023347860
H     13.3820257003     4.2673195555    -0.2252863487
