84
nylon6 config_8380 from config_8380.mcos (coord_rad bohr -> angstrom)
N      2.0893686000    -4.8756330410     0.8332954698
C      3.2436650273    -4.6216988559     1.6995470587
C      4.2940461181    -3.7136065229     1.0357191866
H      3.7090120711    -5.5863430904     1.9770369158
H      2.8507137278    -4.1630476434     2.6213838660
C      3.8144503566    -2.2748165260     0.7838531157
H      4.6215456582    -4.1721642830     0.0816961068
H      5.1854255840    -3.7004448311     1.6911878484
C      4.8827146988    -1.4070150738     0.0986418566
H      3.5229761118    -1.8134654603     1.7478476420
H      2.9028226301    -2.2913334022     0.1566056880
C      4.3931219467     0.0324222623    -0.1652622109
H      5.1760767859    -1.8651780308    -0.8634822406
H      5.7943933563    -1.3739832725     0.7264407748
C      5.4192069291     0.8534866340    -0.9469306933
H      4.1321787837     0.5266302130     0.7873045680
H      3.4752372166    -0.0017956516    -0.7807596629
O      5.7562295631     0.5440508846    -2.1051593851
H     -7.6983607464    -0.3948931998    -0.8396926339
H     -6.5720077344     3.3886125922    -1.1810736004
H     -8.7810636934     1.5941218686     0.0207831205
H     -6.9627529948     2.4042279817     1.6900940277
H     -6.3649866214     0.1298280372    -2.7622139227
C     -7.9699719842     1.7561444699    -0.7143437742
C     -7.2594812641     3.0839421807    -0.3712228855
C     -6.4766947580     3.0866328574     0.9667314310
C     -5.9720726002     0.5117652226    -1.8051895661
C     -4.7350664905    -0.2595841950    -1.3552547387
C     -7.0711057992     0.5059603108    -0.7138383683
N     -5.0596521615     2.7255155509     0.8438444208
O     -4.1264957346     0.0691670866    -0.3120553915
H     -8.0300773816     3.8751415926    -0.3186288062
H     -6.5933157132     0.4027884165     0.2768221491
H     -6.4883303665     4.0959378131     1.4062621183
H     -5.6266942233     1.5459179549    -1.9876737610
H     -8.4692045171     1.8608194979    -1.6966709533
H      8.5746371562     1.3995653319    -0.7207546374
H      6.8661930153     2.7486492421    -1.9618121590
C      9.4576829415     3.3687144614    -1.0256699693
C      8.3796735202     2.4457299539    -0.4216469297
C      6.9499280068     2.8166808394    -0.8645111199
C     -2.6407286252     3.0624769839     0.9452360448
C     -4.0598174780     3.6056653785     1.1164030052
N      5.9331088063     1.9292622415    -0.2936468635
O     -4.2594590268     4.7772220962     1.4976172743
H      8.4381992792     2.4754475164     0.6834464504
H      6.7015116514     3.8493535153    -0.5667687518
H     -1.7713056185    -3.7275658302     0.9055354420
H     -4.3752567575    -3.9497477238    -1.8247105494
H     -2.8159824412    -5.4304563169    -0.6853100328
H     -2.6568759154    -2.3337863401    -2.8084029625
H     -0.7361311460    -5.9933873694     0.5321369879
C     -2.4162729587    -4.4616705588    -1.0418800304
C     -3.5922909978    -3.4783758594    -1.2022895728
C     -3.1840044432    -2.1430877358    -1.8563932255
C     -0.2490354199    -5.0731906502     0.1553967304
C      0.7952765871    -4.6709089317     1.2000283338
C     -1.3211891161    -3.9901555361    -0.0685525296
N     -4.3390954899    -1.2859060989    -2.1418431975
O      0.4687668661    -4.2057249387     2.3072876664
H     -4.0531618240    -3.2732115158    -0.2176740803
H     -0.8339178371    -3.0733225671    -0.4502924606
H     -2.5102767848    -1.5697645286    -1.2014227464
H      0.2365327732    -5.3377003004    -0.8008221738
H     -1.9688406432    -4.6631296425    -2.0351782021
H     -4.9066421390    -1.5117578225    -2.9560361352
H      2.2691705501    -5.2813166082    -0.0836181978
H      5.6264270149     2.1077710614     0.6598291472
C     -1.8646321734     3.0361900729     2.2795545786
H     -2.6612445304     2.0555861887     0.4938246157
H     -2.1219933263     3.7369712720     0.2380626627
H     -4.7958430991     1.7836942001     0.5155063486
C     -0.4059429735     2.5931329816     2.0958829677
H     -2.3764410312     2.3545954432     2.9850581176
H     -1.9012826281     4.0430844362     2.7320669758
H      0.1338068785     3.2757158938     1.4158757932
H     -0.3452824273     1.5767106347     1.6678532574
H      0.1328735441     2.5826984671     3.0591039209
C      9.4138484062     4.8152392257    -0.5048781393
H      9.3640077085     3.3650520358    -2.1288719386
H     10.4516388614     2.9359742230    -0.8062087409
H      9.4894581752     4.8403943876     0.5970268048
H      8.4809026810     5.3329771181    -0.7875816377
H     10.2512445615     5.4086965609    -0.9109838168
