84
nylon6 config_83290 from config_83290.mcos (coord_rad bohr -> angstrom)
N     -4.2570525097     2.5665035846     1.0454181455
C     -3.1380161869     2.6053658979     1.9926559013
C     -1.8170421915     3.0141985658     1.3196429224
H     -3.0604977289     1.5997041516     2.4374337753
H     -3.3687290339     3.3104400423     2.8149116964
C     -1.3029146629     2.0075590618     0.2759326475
H     -1.0732408504     3.1492086355     2.1261810057
H     -1.9372744572     4.0090589481     0.8466319594
C      0.0043663135     2.4381242946    -0.4196083611
H     -2.0805219374     1.8630582198    -0.4970633902
H     -1.1625140098     1.0189236054     0.7555416304
C      1.2485249936     2.3651109509     0.4937764215
H     -0.0990327595     3.4705679801    -0.8012798287
H      0.1743857972     1.7920312318    -1.3008748545
C      2.4895759489     2.9473143411    -0.1863824593
H      1.4270430015     1.3221060101     0.8079561019
H      1.0833582735     2.9647001048     1.4072053471
O      2.5436668874     4.1528046703    -0.5075091696
H     -1.1065142170    -5.1427968550     0.2307394542
H      1.9939004497    -4.0722164616    -1.7080624165
H      1.2906256207    -5.5072151623     0.1927559227
H      4.0320097674    -3.0717652044    -0.8356486166
H     -1.1111673778    -2.6886606774     0.8437697528
C      0.9515127147    -4.4539001343     0.1626369355
C      1.9362118140    -3.6378068904    -0.6920936710
C      3.3667749970    -3.5846092457    -0.1212072850
C     -1.1425726444    -3.0206666641    -0.2095301527
C     -2.5735517141    -2.9329522495    -0.7479993983
C     -0.5054234930    -4.4134491366    -0.3435815821
N      3.4599779770    -2.8820290354     1.1655351255
O     -2.9447081580    -3.5382748533    -1.7700057102
H      1.5818164666    -2.5989840786    -0.8151035801
H     -0.5547888271    -4.7342238539    -1.3995113216
H      3.7598018729    -4.6038459539     0.0366272788
H     -0.5593127682    -2.2790644147    -0.7875829170
H      0.9782399087    -4.0920906608     1.2093133811
H      5.6830084931     2.9122365078    -2.9439031726
H      4.9976075561     3.5129580004    -0.6980258107
C      4.5823068345     1.0536506423    -3.1855021174
C      4.7389203351     2.4590096880    -2.5829654266
C      4.7640086295     2.4907106357    -1.0410539837
C      3.6531198399    -0.9824250978     2.6953820367
C      3.5288518400    -1.5344150678     1.2784693844
N      3.5036514487     2.0775193135    -0.4152636667
O      3.5233571940    -0.7854235638     0.2766103443
H      3.9214030311     3.1146120382    -2.9380229734
H      5.5529477887     1.8166533490    -0.6624356409
H     -7.0941638620    -0.1556121569     0.3204171320
H     -4.2400136013    -0.7322402050    -2.2964430812
H     -6.1306918678     0.7666898547    -2.4712630733
H     -5.1911631665    -2.6080413953    -0.9810176165
H     -6.0882386482     2.5704417806    -0.7012706198
C     -6.1948581212    -0.0024674367    -1.6781558504
C     -4.7703195662    -0.4974301848    -1.3558521756
C     -4.7506973883    -1.7462827345    -0.4524319245
C     -6.4076714339     1.8824425247     0.1021930865
C     -5.2717409187     1.6624582421     1.1091635188
C     -6.9910862870     0.5845235238    -0.4927139267
N     -3.3943967291    -2.1148105061    -0.0372676763
O     -5.3017222864     0.7434349844     1.9479504241
H     -4.1876689083     0.3057082652    -0.8676314879
H     -8.0172968872     0.7987783552    -0.8428001476
H     -5.3347240059    -1.5628300500     0.4640713973
H     -7.2014231975     2.4081919841     0.6666545793
H     -6.7765534733    -0.8375365760    -2.1144312940
H     -3.0067492328    -1.6293690148     0.7688351083
H     -4.3251156833     3.3198222089     0.3629373257
H      3.4197240965     1.0985644186    -0.1043203255
C      5.0523283705    -0.3843578885     2.9642045131
H      2.8905594673    -0.1897256005     2.8023436854
H      3.4252840332    -1.7636351300     3.4420612324
H      3.4606184565    -3.4367906703     2.0176706972
C      5.1510914463     0.2522943760     4.3576256738
H      5.2725241202     0.3684302293     2.1868354633
H      5.8140891107    -1.1793080126     2.8596243757
H      6.1561426818     0.6733594659     4.5311214897
H      4.9568294709    -0.4892914479     5.1526745183
H      4.4183317408     1.0698797702     4.4743933022
C      4.5569103841     1.0642640692    -4.7215954470
H      3.6523837904     0.5916980403    -2.8041059983
H      5.4124056131     0.4117302163    -2.8312173571
H      3.7190268689     1.6756480116    -5.1018648977
H      4.4406394702     0.0459177230    -5.1311924454
H      5.4910200269     1.4859265389    -5.1350110312
