84
nylon6 config_18510 from config_18510.mcos (coord_rad bohr -> angstrom)
N      0.1705816120    -1.3318814231     0.6458307132
C     -1.0662597306    -1.3995544879     1.4261286209
C     -2.3349458505    -1.2511771220     0.5634693539
H     -1.0325314115    -0.5989506767     2.1865986506
H     -1.0811703362    -2.3691284267     1.9518624560
C     -3.6173276906    -1.3129323205     1.4099375435
H     -2.3459546429    -2.0522866884    -0.1990909666
H     -2.2917069755    -0.2905903157     0.0157753842
C     -4.8943300371    -1.1573381031     0.5672244017
H     -3.5859450290    -0.5206180696     2.1837221333
H     -3.6543642042    -2.2768786927     1.9543418527
C     -6.1778792002    -1.2244608444     1.4209610597
H     -4.9361006572    -1.9519112415    -0.1999547094
H     -4.8642867960    -0.1925249268     0.0249560252
C     -7.4420133635    -1.1854348257     0.5615692002
H     -6.1819843259    -0.4116816106     2.1689420585
H     -6.1976168504    -2.1811686931     1.9752226688
O     -7.6926345095    -2.0785748779    -0.2691276369
H      7.0699970337     1.9219283641     0.6298398946
H      4.5432210071     2.4576424836     0.4719040207
H      5.5054377189     0.7497148255    -1.0727461593
H      3.1317438655     1.4350917874    -1.3996480306
H      8.2717099711     0.9171044867    -2.0320046550
C      5.8248501201     1.8059851323    -1.1612268444
C      4.7117186485     2.7012769706    -0.5934359996
C      3.3950187570     2.5046514565    -1.3697766343
C      8.2530109845     0.9747717557    -0.9286795477
C      8.0368725785    -0.4062254428    -0.3040066105
C      7.1843697415     1.9971792304    -0.4680645639
N      2.2569096656     3.2033993228    -0.7684486058
O      8.3224032528    -0.6310158486     0.8871075793
H      5.0118501764     3.7659449016    -0.6346206882
H      7.5597107412     3.0164740058    -0.6730260014
H      3.5104202584     2.8568697424    -2.4102558942
H      9.2499392720     1.3108020818    -0.5972563622
H      5.9439783881     1.9996582990    -2.2453956201
H     -8.5638570676     0.9444224242    -1.7562660091
H     -9.7701088557    -0.8385857011    -0.4480534791
C    -10.6661601289     1.5342665448    -1.7783434637
C     -9.3500705972     1.2334420191    -1.0330659858
C     -9.4969259898     0.1187154845     0.0218574055
C      0.1719973597     3.4667131414     0.4904139827
C      1.2963250463     2.5802205531    -0.0433428424
N     -8.2572151082    -0.1161211462     0.7652504314
O      1.3166968625     1.3495357756     0.1723717201
H     -8.9937497625     2.1515690948    -0.5293829149
H    -10.2926016497     0.3858499507     0.7412601502
H      3.4564185047    -2.0335610474     1.0798012313
H      5.9545811273    -2.2190563613     1.0202501128
H      4.7140071171    -1.4959031631    -1.0787071680
H      7.1944919444    -3.3658886631    -1.5632175519
H      2.1804663935    -1.1112015876    -0.8685430926
C      4.6322374491    -2.5257104071    -0.6797816251
C      5.8974446799    -2.8644235494     0.1244061641
C      7.2155022735    -2.7264825185    -0.6639139380
C      2.0919380783    -2.1800728329    -0.6073269924
C      0.8082969403    -2.4364393492     0.1838341745
C      3.3492678391    -2.6416519293     0.1606769116
N      7.5037447338    -1.3588454914    -1.1142948953
O      0.4010560646    -3.5969332040     0.3986424335
H      5.8386563226    -3.9071144539     0.4916351983
H      3.2084258030    -3.6887246356     0.4872428225
H      8.0560978419    -3.0596748641    -0.0319445595
H      2.0071399696    -2.7523973849    -1.5495317311
H      4.5566523484    -3.1941393108    -1.5599260257
H      7.2913780621    -1.1138784810    -2.0780897498
H      0.5555164944    -0.4011100843     0.4405459875
H     -7.9740134267     0.5817152748     1.4496430467
C      0.0001230698     3.3495543905     2.0198902695
H      0.3362961961     4.5203149322     0.2036642627
H     -0.7540183211     3.1309756513    -0.0113089104
H      2.1928031479     4.2117224809    -0.8898558044
C      1.1804261198     3.9285809535     2.8142501763
H     -0.1458501142     2.2859717741     2.2784057075
H     -0.9321235181     3.8715128661     2.3010676112
H      1.3441126792     4.9922226093     2.5664848766
H      2.1189210960     3.3868377014     2.5999420341
H      0.9994016975     3.8600886716     3.9003558862
C    -11.1519542410     0.3900737571    -2.6837592011
H    -10.5225202233     2.4444434308    -2.3899751882
H    -11.4523809695     1.7872658797    -1.0408502570
H    -12.0545000321     0.6849362985    -3.2466362371
H    -11.4080182759    -0.5164043904    -2.1083860894
H    -10.3754885556     0.1111799153    -3.4184765809
