84
nylon6 config_79120 from config_79120.mcos (coord_rad bohr -> angstrom)
N     -3.5921219032     1.5216308412     1.1697249853
C     -4.5726560581     0.5992226161     1.7455779145
C     -5.9482116460     0.6741079829     1.0562154725
H     -4.6742818590     0.8308663910     2.8210716248
H     -4.1561719139    -0.4173432557     1.6537955010
C     -6.9614477587    -0.2913774809     1.6936662388
H     -5.8259625714     0.4395953419    -0.0179201682
H     -6.3299148638     1.7113306786     1.1144918248
C     -8.3428808570    -0.2332892370     1.0204819789
H     -7.0703036954    -0.0549858863     2.7703688961
H     -6.5671549858    -1.3252441325     1.6410033769
C     -9.3547335504    -1.2016404963     1.6680962228
H     -8.2410854108    -0.4743496041    -0.0552783894
H     -8.7454884383     0.7943882405     1.0795216856
C    -10.7554793249    -1.0519763880     1.0735294929
H     -9.4394921884    -0.9727198314     2.7466031913
H     -8.9962298578    -2.2427359574     1.5807534002
O    -11.3964601742     0.0106281390     1.1764626184
H      6.5954460430     1.0555804511     0.4510958584
H      8.5211290603    -0.5438315374     1.0882828040
H      8.8519559171     1.9640086339     1.1510485791
H     10.7760047276     0.3938155449     1.7660673167
H      6.8938034767     3.5605897757     0.5203851902
C      8.7218800050     1.4303662344     0.1888881453
C      9.1690647604    -0.0321289760     0.3513505906
C     10.6372001300    -0.1364983844     0.8071228112
C      6.8217844433     3.0271590220    -0.4440688648
C      5.4150671324     3.1428297701    -1.0320839100
C      7.2617840212     1.5578608096    -0.2766049546
N     11.0856913124    -1.5193093025     0.9835154723
O      5.1447506651     2.7062890195    -2.1663243978
H      9.0511980723    -0.5726173602    -0.6065242494
H      7.1299161645     1.0356047319    -1.2417407438
H     11.3002287927     0.3304406986     0.0602674763
H      7.5047230710     3.5338348885    -1.1510902325
H      9.3823446448     1.9394490566    -0.5401508942
H    -11.7702225718    -2.9064590146    -2.1215107289
H    -13.0470700565    -3.1398357894     0.0543674610
C    -13.8051264859    -2.2176059517    -2.4711930978
C    -12.4395674551    -2.1015419923    -1.7642984637
C    -12.5469835783    -2.1957109193    -0.2290458303
C     12.1239233959    -3.6579702410     0.4026696347
C     11.7678202131    -2.2167817888     0.0360763004
N    -11.2398619331    -2.1475188241     0.4297311396
O     12.0864901526    -1.7248952657    -1.0624825031
H    -11.9545056162    -1.1441731832    -2.0341200580
H    -13.1384072980    -1.3613622607     0.1784891686
H     -0.1701466541     2.0286733703     1.2760586458
H      2.2588453841     2.8543879646     1.0778295490
H      0.3760282964     4.0927241121    -0.0815852828
H      2.7711194927     4.9337577007    -0.2798925612
H     -2.0668614541     3.2512448423     0.1420197345
C      0.6920025876     3.0853690618    -0.4175718396
C      2.1607769587     2.8539804850    -0.0244833404
C      3.0900146268     3.9310559119    -0.6164596832
C     -1.7268862046     2.2673279770    -0.2268742441
C     -2.6462240434     1.1495044548     0.2661725204
C     -0.2557991796     2.0275894254     0.1721932034
N      4.4925044535     3.7480780470    -0.2373292125
O     -2.5152431041    -0.0241761240    -0.1280799258
H      2.4947239645     1.8590364992    -0.3740039090
H      0.0459306015     1.0206787228    -0.1695464381
H      3.0438019223     3.9101674556    -1.7176592137
H     -1.8076638510     2.2846228982    -1.3296414758
H      0.5999562854     3.0832405176    -1.5212939099
H      4.7801599133     4.0585928462     0.6879317324
H     -3.6520109678     2.5033822801     1.4302446892
H    -10.6472083674    -2.9726666144     0.3707778346
C     11.4806279814    -4.6805736115    -0.5577225235
H     13.2250185418    -3.7412881632     0.3382872719
H     11.8389068912    -3.8839568851     1.4457772869
H     10.8389293037    -1.9933261439     1.8491507318
C     11.9202196129    -6.1200889590    -0.2546972911
H     11.7515241895    -4.4107521444    -1.5937482475
H     10.3792446813    -4.6025355249    -0.4888468538
H     11.6405139268    -6.4189271140     0.7712411116
H     13.0150333912    -6.2297932918    -0.3490899503
H     11.4492455443    -6.8349697255    -0.9510606560
C    -14.7514575639    -1.0339504565    -2.2097704590
H    -14.2944278711    -3.1624120863    -2.1645965363
H    -13.6300223062    -2.3082322143    -3.5594413406
H    -15.6825057443    -1.1331992925    -2.7942974320
H    -14.2767770066    -0.0783006305    -2.4959649503
H    -15.0398735512    -0.9583606909    -1.1470268899
