84
nylon6 config_95370 from config_95370.mcos (coord_rad bohr -> angstrom)
N     -4.5408057730     1.8930805852     2.4384000565
C     -5.9159924468     1.6545715170     2.8896799264
C     -6.9639745027     2.5386075903     2.1761658806
H     -5.9571632139     1.8397600116     3.9774443024
H     -6.1209745136     0.5858475279     2.7254428375
C     -6.9819130672     2.3917604103     0.6430043192
H     -6.7776040743     3.5970456297     2.4377308965
H     -7.9532979133     2.2845905669     2.6025373156
C     -7.3409748148     0.9764388315     0.1526961408
H     -5.9819104138     2.6608191069     0.2516823256
H     -7.6826228182     3.1338194419     0.2169965701
C     -6.9665713912     0.7448039495    -1.3303976216
H     -8.4186376737     0.7803515976     0.3042082155
H     -6.7958088997     0.2412500005     0.7669665082
C     -6.8550883846    -0.7351291390    -1.7193727773
H     -5.9864532311     1.2201469027    -1.5270941575
H     -7.6996038675     1.2080043213    -2.0090848209
O     -7.5869475059    -1.2501116681    -2.5879989804
H      5.3051787574     0.6149753648    -2.4932155710
H      5.3906140286    -1.3094493675     0.8767850865
H      7.1533760852    -0.6397565981    -1.5780625873
H      7.1525649311    -0.3580879746     2.2546127240
H      3.3642246725    -0.6787680132    -1.5572224583
C      6.1658729898    -0.8128072197    -1.1093514660
C      6.3664414864    -1.1418895240     0.3838415371
C      7.1171937361    -0.0642248392     1.1930300657
C      3.7855670971     0.1808798602    -1.0060944728
C      2.9431253787     1.4395592362    -1.2190459385
C      5.2593982824     0.3990871732    -1.4093140542
N      8.5009863900     0.1449800874     0.7557877723
O      3.2014149614     2.5021971035    -0.6236415424
H      6.9205809256    -2.0941511861     0.4736329850
H      5.6348632033     1.3050103198    -0.9004629232
H      6.5948786165     0.9063554119     1.1306501806
H      3.7199573416    -0.0577457077     0.0707893131
H      5.7526016525    -1.7062187045    -1.6153319851
H     -5.3706322397    -3.3572628085     0.8169937373
H     -6.1743357522    -3.1528257585    -2.1627114535
C     -7.4133175041    -3.8506740289     0.2480753179
C     -5.9138696786    -3.7356825700    -0.0712718165
C     -5.5894676419    -2.8392422500    -1.2824257953
C     10.9415519948    -0.0556197570     0.7880893392
C      9.5703261260    -0.4606252326     1.3391051335
N     -5.8880197856    -1.4232409185    -1.0553131139
O      9.4534326398    -1.2687115534     2.2781784596
H     -5.5008756576    -4.7418374570    -0.2795028895
H     -4.5177807569    -2.9362598511    -1.5366595233
H     -2.4865344354     0.7012199119    -0.7138115056
H     -0.7900328791     1.1478624427    -2.5722084148
H     -0.0663888729     1.1742458286    -0.1338061691
H      1.3429175917     3.2929995920    -1.9161122379
H     -1.7432632118     0.7012618390     1.6967643483
C     -0.7193437277     1.9628664786    -0.5539977153
C     -0.4739120197     2.0816385293    -2.0670709316
C      0.9864262195     2.3937064125    -2.4441784226
C     -2.4132598384     1.4886981812     1.3035837138
C     -3.8400021252     1.0540292962     1.6343083779
C     -2.1833260635     1.6390356765    -0.2143087535
N      1.9114483843     1.3119621398    -2.0966600937
O     -4.3109908513    -0.0147128478     1.1899399347
H     -1.1054421507     2.8877968557    -2.4863547504
H     -2.8429024860     2.4366883549    -0.6078736377
H      1.0567406557     2.5892650658    -3.5301407050
H     -2.1551231085     2.4271897550     1.8248264806
H     -0.4237182963     2.9095343376    -0.0604334240
H      1.7795421369     0.4120252089    -2.5546094295
H     -4.0819662217     2.7467437039     2.7509227692
H     -5.3272763396    -0.9277743539    -0.3513517550
C     11.8484965784    -1.2675241146     0.4977443202
H     10.8295885385     0.5668772064    -0.1175430086
H     11.4104071152     0.5804996556     1.5621144204
H      8.6736435916     0.7922257045    -0.0093161730
C     11.3635290977    -2.1238701110    -0.6819272115
H     11.9123570391    -1.8838976988     1.4117619741
H     12.8695954669    -0.8966311507     0.2952988469
H     12.0582289347    -2.9576256577    -0.8809283183
H     11.2855136208    -1.5228560822    -1.6051728803
H     10.3691306294    -2.5614206769    -0.4820708354
C     -7.6925762578    -4.7285398346     1.4777627069
H     -7.9404818885    -4.2640362904    -0.6332081301
H     -7.8317474283    -2.8401166873     0.4113538467
H     -7.3189858707    -5.7578029400     1.3287774304
H     -8.7736338960    -4.7938445780     1.6908143406
H     -7.1978830227    -4.3219307861     2.3778781533
