84
nylon6 config_92030 from config_92030.mcos (coord_rad bohr -> angstrom)
N     -3.8731285492    -3.4865778927    -0.6759389651
C     -2.6241593773    -3.7860767756     0.0264971699
C     -1.4644260965    -2.8704686873    -0.4029115199
H     -2.3492535641    -4.8435985028    -0.1511986159
H     -2.8339267613    -3.6714621392     1.1020709602
C     -0.1821749023    -3.1795396025     0.3891770400
H     -1.7576139658    -1.8146355870    -0.2536065633
H     -1.2754196385    -2.9982576552    -1.4863413816
C      1.0366169638    -2.3764778302    -0.0958237278
H      0.0437189497    -4.2616720834     0.3160188230
H     -0.3564671278    -2.9714497244     1.4627930012
C      2.2905124398    -2.6642018033     0.7571120588
H      0.8180200903    -1.2938013210    -0.0605639981
H      1.2438441210    -2.6249078467    -1.1542655309
C      3.5123515488    -1.8769426780     0.2911902100
H      2.5044473935    -3.7477728504     0.7595762962
H      2.0959419423    -2.3673358811     1.8040897741
O      3.5485397490    -0.6287135029     0.3373201201
H     -2.3882151561     1.6379771539    -0.0234173820
H      0.1596198114     1.4174283513     0.1011199869
H     -1.2171128722     2.1571464746     2.1314847291
H      1.3171595668     1.7214873201     2.3063393136
H     -3.7864199107     2.5506840414     1.8993182458
C     -1.0692960842     2.8060060167     1.2456757967
C      0.2452177126     2.4290236042     0.5418821188
C      1.4527135652     2.4632528615     1.4990054297
C     -3.5998115158     3.1392712494     0.9835379163
C     -4.7881692923     3.0490823048     0.0242012762
C     -2.2866871884     2.6874042421     0.3139396543
N      2.7208173575     2.1804880492     0.8242564553
O     -4.7827883453     3.6266020785    -1.0791540262
H      0.4330616240     3.1251782540    -0.2967178038
H     -2.1269019579     3.2960945767    -0.5944067117
H      1.5379823544     3.4607067787     1.9616356838
H     -3.5083124460     4.1984172596     1.2898827974
H     -0.9962748903     3.8427968055     1.6286140049
H      7.0555809293    -3.3803689917     0.5479107990
H      6.0568687854    -2.5247556901    -1.6284779397
C      8.3037914868    -1.7554679495    -0.1862712710
C      6.9644920963    -2.2963534588     0.3422072711
C      5.8133213112    -2.0637145142    -0.6538942726
C      4.8174270561     2.6929319238    -0.3262557653
C      3.5487237470     3.1627028803     0.3867394299
N      4.5410561721    -2.6190247087    -0.1861369268
O      3.3065797971     4.3768915583     0.5466118164
H      6.7134491986    -1.8113252932     1.3047072788
H      5.6561580597    -0.9857513316    -0.8180203768
H     -8.1493363374    -1.9632112111    -1.0746465881
H     -8.5465975541     0.5685200622    -0.6956138417
H     -6.4171513021    -0.2789253810    -1.7650689364
H     -7.8341801879     2.7858139366    -0.0206283060
H     -6.7855013934    -3.9598341249    -0.9669851537
C     -6.6269768955    -0.4590636754    -0.6926185107
C     -7.5773170789     0.6291639425    -0.1657561982
C     -7.0520043393     2.0648718884    -0.3278314530
C     -6.2493778851    -2.9916716751    -0.9741826978
C     -5.0383384898    -3.1681083931    -0.0490705028
C     -7.2007225932    -1.8746978172    -0.5125452976
N     -5.8312449323     2.2895962014     0.4519357882
O     -5.1330673152    -3.0597454461     1.1865693859
H     -7.8024187593     0.4408012568     0.9029488021
H     -7.4443670404    -2.0421517454     0.5521826630
H     -6.8038936138     2.2807096837    -1.3801677916
H     -5.9191166949    -2.8218936094    -2.0147348163
H     -5.6556063973    -0.3846999499    -0.1674471156
H     -5.7827751096     1.8802562268     1.3833426539
H     -3.8811907910    -3.5714470920    -1.6907281468
H      4.4412989091    -3.6319335377    -0.1828947622
C      4.9067899046     3.2301757202    -1.7701089961
H      5.6746161925     3.0791507259     0.2575301533
H      4.8793182250     1.5908987606    -0.3210933647
H      2.9688802020     1.1986924888     0.6493988301
C      6.2339667984     2.8631719108    -2.4493677554
H      4.7828939164     4.3273138276    -1.7480131188
H      4.0610675506     2.8296906294    -2.3606704503
H      6.2764269336     3.2542680380    -3.4805668168
H      6.3708260613     1.7683918648    -2.5008800001
H      7.0928645063     3.2815870883    -1.8952476577
C      9.4641052281    -1.9829661883     0.7954072638
H      8.2029683517    -0.6741867182    -0.3991648065
H      8.5356270602    -2.2391755379    -1.1546394335
H     10.4140613181    -1.5901069206     0.3940153201
H      9.6067663732    -3.0588004701     1.0015947544
H      9.2745649031    -1.4800444354     1.7604317036
