84
nylon6 config_5560 from config_5560.mcos (coord_rad bohr -> angstrom)
N      5.6390205759     1.4037538899    -1.3263509021
C      5.9606279464     2.8198668153    -1.1079888424
C      4.8365816176     3.7467689317    -1.6060695153
H      6.9035610904     3.0627315076    -1.6336859387
H      6.1504222278     2.9751889896    -0.0306496367
C      3.6238721463     3.9244857219    -0.6679492838
H      4.4980423753     3.4027750416    -2.6032800635
H      5.2875375255     4.7415538603    -1.7736219884
C      2.8035452475     2.6518923933    -0.3934798576
H      2.9597546897     4.6894266091    -1.1153132468
H      3.9732227151     4.3491045334     0.2934470788
C      1.5354120446     2.9504980257     0.4243267297
H      3.4213539751     1.9139182994     0.1475054864
H      2.5077575748     2.1730085787    -1.3443899498
C      0.7215193680     1.6976330565     0.7571135474
H      0.8713934045     3.6217358624    -0.1545716007
H      1.7928616336     3.4904121321     1.3533335696
O      0.5999538961     0.7543326408    -0.0532095118
H     -1.7727938485    -4.3318884435    -1.2305353314
H     -3.9675480410    -1.4229829926    -0.1960844252
H     -4.1029033939    -3.6506238123    -1.4060814107
H     -5.9790498081    -1.9477386529    -1.6066232983
H     -0.7811885042    -2.3761701847    -2.5414255745
C     -3.3392488064    -2.8953821581    -1.6740202412
C     -3.8661634049    -1.4998080422    -1.2950001641
C     -5.2319074904    -1.2123041332    -1.9477666224
C     -0.8136411003    -2.4108284027    -1.4348508593
C      0.5286551015    -2.9921629342    -0.9806551084
C     -2.0095655128    -3.2794276258    -0.9952896742
N     -5.7534609893     0.1176875413    -1.6256659024
O      0.8419224467    -4.1790628567    -1.2072659454
H     -3.1488505550    -0.7171600786    -1.6041471206
H     -2.1252207883    -3.2205468975     0.1043108842
H     -5.1513924083    -1.2933525119    -3.0468316728
H     -0.9173571793    -1.3719807017    -1.0801349087
H     -3.2163648331    -2.9567850055    -2.7732160789
H      0.2342963036     0.4848683917     4.4131544229
H     -1.6785979955     1.1136858485     2.8487909176
C     -0.9979382743    -1.2941422596     4.1517752101
C     -0.0813335214    -0.1873012814     3.5918520550
C     -0.7494921829     0.6447270739     2.4804274910
C     -7.0651550034     1.8167047638    -0.4505940953
C     -6.6693219912     0.3528264335    -0.6482024109
N      0.1241222868     1.7070986216     1.9733732807
O     -7.1714492982    -0.5569533465     0.0376427355
H      0.8410582251    -0.6382893234     3.1821376522
H     -1.0097781391     0.0022566196     1.6242582735
H      5.5944862230    -3.0063295232    -0.4820049543
H      2.9039183338    -0.9529539549     1.5455702480
H      5.3131328792    -0.7326583614     1.5849825320
H      2.6400322813    -3.3404226550     0.8346727418
H      6.6733389442    -1.3873582170    -1.9830475622
C      4.9083835737    -1.6253767387     1.0720653825
C      3.4538624051    -1.3237287875     0.6610634292
C      2.7058048437    -2.5310449508     0.0826449495
C      5.9340484964    -1.0206419281    -1.2467248718
C      6.3870393637     0.3834784257    -0.8322655583
C      5.8686173844    -2.0176641073    -0.0715096308
N      1.3573910789    -2.1335345142    -0.3405094155
O      7.3745847740     0.5777968837    -0.0993736976
H      3.4310391997    -0.5015603018    -0.0758936427
H      6.8832729251    -2.1300873956     0.3494923787
H      3.2406339964    -2.9540302728    -0.7874940895
H      4.9664208103    -0.9689987969    -1.7744762920
H      4.9155612580    -2.4335373487     1.8275472180
H      1.0617919928    -1.1593125676    -0.1893819011
H      4.8800928994     1.1865766974    -1.9690146050
H      0.2858105479     2.5107440560     2.5772994873
C     -8.5681614580     2.0552860638    -0.7059492278
H     -6.8299204456     2.0718582497     0.5998729444
H     -6.4592276324     2.4813855287    -1.0918427591
H     -5.3713159327     0.9138749211    -2.1308156180
C     -8.9899302191     3.4981388989    -0.3935349028
H     -9.1469998238     1.3471651880    -0.0872192669
H     -8.8011060136     1.8167115925    -1.7608199742
H     -8.4361209861     4.2233223087    -1.0160657266
H     -8.7969434646     3.7483963579     0.6645802640
H    -10.0665473257     3.6481906597    -0.5837434477
C     -2.2036354117    -0.7710222525     4.9506590520
H     -0.3918942593    -1.9519935591     4.8020887829
H     -1.3492475056    -1.9332594546     3.3190604511
H     -2.9002438349    -0.1889769847     4.3229358308
H     -1.8748634454    -0.1186191901     5.7792866677
H     -2.7797740553    -1.6040459962     5.3893443027
