44
pvc config_36710 from config_36710.mcos (coord_rad bohr -> angstrom)
C     -5.7221174366     0.8767974043     0.0314439708
C     -4.1964164374     1.0123161192    -0.1672041955
C     -3.3963431605    -0.2812076034     0.0574286725
H     -3.7820920921     1.8050597570     0.4826277988
H     -4.0093429371     1.3213689549    -1.2149527747
C     -1.9067776888    -0.0990972212    -0.2863297684
H     -3.8275356925    -1.1262984628    -0.5007812112
Cl    -3.5408459502    -0.7959766692     1.8771404175
C     -1.0022249542    -1.3376241358    -0.1620838611
H     -1.4760879940     0.6891077526     0.3631334482
H     -1.8565593862     0.2840195713    -1.3242181873
C      0.4678245420    -1.0132042863    -0.4989822123
Cl    -1.6136757717    -2.6655005815    -1.3618730710
H     -1.0827030402    -1.7934611984     0.8368865871
C      1.4723547183    -2.1667099606    -0.3534681901
H      0.7649349657    -0.1703466645     0.1544655563
H      0.5330551399    -0.6501841045    -1.5435994755
C      2.9214974004    -1.9009900322    -0.8194228837
H      1.1003830476    -3.0481015227    -0.9007912400
Cl     1.5092612732    -2.7257704025     1.4598424611
C      3.6638005475    -0.7310229868    -0.1235942303
H      2.8889943350    -1.7324208675    -1.9127887370
H      3.4927243110    -2.8363283495    -0.6664221323
C      3.4780097642     0.6333747553    -0.8076693650
Cl     5.5247203969    -1.1627625157    -0.1787500590
H      3.4347021308    -0.7007815657     0.9513058971
C      4.1667117023     1.8230563556    -0.0982718626
H      2.3922191471     0.8397074459    -0.8507889052
H      3.8192584176     0.5458948233    -1.8549029599
C      3.5924033995     2.1852258209     1.2746058793
Cl     3.9659212464     3.3059656553    -1.2859748757
H      5.2579040945     1.6823020612    -0.0433272169
C     -6.4261863301    -0.0005641464    -0.9974410094
Cl    -6.4229261570     2.6487405716    -0.1090750380
H     -5.9696814995     0.5767624721     1.0607803402
H     -6.1009067430    -1.0472117918    -0.8576647152
H     -6.1696990708     0.3022196391    -2.0271179596
H     -7.5244722603     0.0170663849    -0.8818154421
C      4.2811221762     3.3579546672     1.9952242601
H      3.7000778632     1.2769758715     1.9010885676
H      2.5042765195     2.3633490291     1.1805818613
H      4.1381256085     4.3077425764     1.4541179648
H      5.3669171034     3.1839984607     2.0993468592
H      3.8618229366     3.4798982458     3.0071576590
