44
pvc config_19400 from config_19400.mcos (coord_rad bohr -> angstrom)
C     -6.8166980509    -0.2762943923    -0.0856993377
C     -5.4069986727    -0.8415661290    -0.3658634540
C     -4.2481050457     0.1204028904    -0.0564535795
H     -5.3192425258    -1.1814551961    -1.4144236523
H     -5.2569044809    -1.7317286973     0.2770360013
C     -2.8776616804    -0.5549238513    -0.2407469001
H     -4.3396839433     0.5537172439     0.9513770761
Cl    -4.3479561254     1.6142104619    -1.2216884547
C     -1.6332355520     0.2788054276     0.1117965022
H     -2.7688163104    -0.8784762380    -1.2954416954
H     -2.8829735031    -1.4767417585     0.3734249801
C     -0.3279253637    -0.4865891085    -0.1635246318
Cl    -1.6977485583     0.7234529251     1.9506043171
H     -1.6438912298     1.2458973724    -0.4156754851
C      0.9988543988     0.2300808855     0.1387426074
H     -0.3437929294    -0.7833175714    -1.2313060154
H     -0.3302831781    -1.4268449362     0.4233091066
C      2.2195121094    -0.6541472120    -0.1719573671
H      1.0267271196     0.5870829468     1.1805313771
Cl     1.0956955174     1.7970559505    -0.9186524314
C      3.6062594726    -0.0701199176     0.1509066354
H      2.2176701984    -0.9122169073    -1.2492360348
H      2.0868991201    -1.6053177293     0.3818190598
C      4.7359974018    -1.0276518556    -0.2608784450
Cl     3.7120605282     0.2509530645     2.0177215587
H      3.7290537544     0.9246979582    -0.3032197657
C      6.1696156217    -0.4842965447    -0.0740848270
H      4.5832630207    -1.2515093266    -1.3359199454
H      4.6080704737    -1.9806353356     0.2853303132
C      6.5403919610     0.6992820201    -0.9716429996
Cl     7.3289892077    -1.9568633868    -0.4507942675
H      6.3810552759    -0.2561746981     0.9827512257
C     -7.1193907160    -0.0089031979     1.3842914658
Cl    -8.0400383671    -1.5994190458    -0.7211429823
H     -7.0307193130     0.6025820052    -0.7122228543
H     -6.8953022589    -0.8907504523     2.0087118378
H     -8.1704793675     0.2882137635     1.5482756210
H     -6.4867724400     0.8271884064     1.7328653913
C      7.9624219891     1.2578859518    -0.7867673928
H      5.8145156489     1.5025058258    -0.7332404288
H      6.3577050349     0.4279134111    -2.0288528390
H      8.0990234113     2.1586425475    -1.4070025692
H      8.7291388380     0.5239215029    -1.0845888474
H      8.1504749062     1.5413865830     0.2641769065
