44
pvc config_98180 from config_98180.mcos (coord_rad bohr -> angstrom)
C      6.8308504686    -0.1797467581    -0.2588280296
C      5.4184387343    -0.6721114762    -0.6429225299
C      4.2642800354     0.0112447766     0.1088436773
H      5.3321807600    -1.7663275748    -0.5093955520
H      5.2596801334    -0.4634289496    -1.7196629765
C      2.8918878693    -0.4475315975    -0.4148444891
H      4.3511499156     1.1081188559     0.0752156260
Cl     4.3825105331    -0.4145670765     1.9537192573
C      1.6473039153     0.2025294499     0.2148184513
H      2.7957902922    -1.5430849498    -0.2751517132
H      2.8833253811    -0.2663132103    -1.5076617296
C      0.3421016265    -0.3759164828    -0.3557185618
Cl     1.6871137207     2.0637405559    -0.1312462007
H      1.6714717003     0.1163085040     1.3127869550
C     -0.9841302955     0.1721635629     0.1967343222
H      0.3740533337    -1.4720774766    -0.1949753943
H      0.3269989015    -0.2206448479    -1.4530525353
C     -2.2036292841    -0.4773952589    -0.4788197897
H     -1.0218605102     1.2701876183     0.1064873054
Cl    -1.0488049244    -0.1702444038     2.0575430235
C     -3.6006315846    -0.0102314134    -0.0272881107
H     -2.1621573661    -1.5728390595    -0.3248345709
H     -2.0935014297    -0.3096107674    -1.5695556563
C     -4.7232632199    -0.8098229702    -0.7110895115
Cl    -3.7386359944     1.8453575108    -0.3989410635
H     -3.6959653973    -0.0837534080     1.0699201067
C     -6.1346555228    -0.7489091841    -0.1047038646
H     -4.4251502967    -1.8745287400    -0.6000661547
H     -4.7529504385    -0.6060986426    -1.7962285347
C     -7.0511550834    -1.8642036829    -0.6296592569
Cl    -6.9716958175     0.9311867242    -0.4457113666
H     -6.0821342593    -0.7952435438     0.9977730406
C      7.1312503727     1.2655060230    -0.6391933487
Cl     8.0477079677    -1.3146314237    -1.1982727226
H      7.0521514962    -0.3767143901     0.8008686001
H      6.5013108816     1.9344581497    -0.0256852859
H      6.9015674160     1.4586125387    -1.7011398166
H      8.1832718294     1.5399914545    -0.4444727507
C     -8.4144507030    -1.9768267713     0.0723195158
H     -6.4909787984    -2.8081203766    -0.4810113453
H     -7.1840892871    -1.7553871529    -1.7229286306
H     -8.2936143733    -2.0723334963     1.1655734635
H     -8.9537349403    -2.8693907271    -0.2857703856
H     -9.0513221635    -1.0985811886    -0.1254686760
