44
pvc config_8380 from config_8380.mcos (coord_rad bohr -> angstrom)
C     -4.6771510381     1.8217408504     0.1886390808
C     -4.9055139389     0.3352500145     0.5097958081
C     -4.6231548500    -0.6234560213    -0.6692512240
H     -5.9427220822     0.2066613031     0.8732569629
H     -4.2450211831     0.0894584080     1.3630098085
C     -3.1627944676    -0.6999810415    -1.1728167524
H     -5.2691756224    -0.3681210856    -1.5236613416
Cl    -5.2418994759    -2.3399566604    -0.1325898896
C     -2.0119341772    -0.6714988191    -0.1545382412
H     -3.0254512251     0.2113568770    -1.7907545378
H     -3.0348614442    -1.5509829445    -1.8676734802
C     -0.6458407903    -0.5164721301    -0.8528547865
Cl    -1.9632956120    -2.2598846433     0.8789701766
H     -2.1469689687     0.1340073460     0.5852056535
C      0.5932389784    -0.3746796635     0.0468914439
H     -0.7137742189     0.3674435464    -1.5173729708
H     -0.4744670020    -1.3912483883    -1.5114212556
C      1.8944793706    -0.2817548864    -0.7702759759
H      0.6483205255    -1.1950810926     0.7802321226
Cl     0.4141430695     1.1994953370     1.0818718482
C      3.2106751003    -0.1870651774     0.0213802809
H      1.8474261954     0.6060459853    -1.4307304058
H      1.9308541811    -1.1695170478    -1.4336131665
C      4.4258456399    -0.0456482896    -0.9093082142
Cl     3.4102427387    -1.7581188595     1.0679053999
H      3.1662713872     0.6257182342     0.7617441405
C      5.7773587483     0.1912449583    -0.2003480479
H      4.2209187598     0.8205767136    -1.5701553935
H      4.4779475719    -0.9378198770    -1.5603492920
C      5.9089595800     1.5407612920     0.5108720104
Cl     7.1066558376     0.0612484520    -1.5678968761
H      6.0283701495    -0.6377574307     0.4804749660
C     -4.8028200208     2.7179808252     1.4147741364
Cl    -5.9711846042     2.3873101544    -1.0956315794
H     -3.7200340509     1.9908413040    -0.3280486446
H     -4.0194501610     2.4358039373     2.1410519779
H     -5.7845950981     2.5960935035     1.9037020096
H     -4.6605147229     3.7828494115     1.1620575190
C      7.2435638813     1.7866583104     1.2364014899
H      5.0914599188     1.5732846244     1.2589290428
H      5.6952674980     2.3543484745    -0.2082074673
H      7.4608469122     0.9840319071     1.9635108670
H      7.2040384422     2.7390512233     1.7896582718
H      8.0865889307     1.8428794717     0.5282942122
