44
pvc config_85200 from config_85200.mcos (coord_rad bohr -> angstrom)
C      5.6655034781     1.4815655590     0.8761481189
C      5.2375190493     1.2015164447    -0.5739777910
C      4.1422133792     0.1220299666    -0.7226622020
H      6.1347450977     0.9339464158    -1.1622574148
H      4.8593307398     2.1586321174    -0.9839985513
C      2.7567134791     0.5685892645    -0.2277686189
H      4.4526145712    -0.8265647435    -0.2582543054
Cl     4.0245274484    -0.2646656881    -2.5795761462
C      1.5888787456    -0.4214337748    -0.3844605459
H      2.4717383768     1.5013752336    -0.7543906852
H      2.8546865760     0.8329353357     0.8438659056
C      0.2599777981     0.1585198311     0.1249959157
Cl     1.9919515727    -1.9893665000     0.5995599940
H      1.4990076945    -0.7559321244    -1.4306717988
C     -0.9931675542    -0.7252386998     0.0219098150
H      0.0849766375     1.1023890220    -0.4292963194
H      0.3710607065     0.4388374803     1.1916576552
C     -2.2488606629    -0.0218785060     0.5668350488
H     -0.8375234584    -1.6929238297     0.5256655603
Cl    -1.2892253914    -1.1610518358    -1.7977571090
C     -3.5700599469    -0.8081521548     0.5502350952
H     -2.4083603006     0.9123970368    -0.0071303435
H     -2.0290148722     0.2866262156     1.6084789155
C     -4.7648762518    -0.0296853854     1.1439826896
Cl    -3.3551681655    -2.3656716596     1.6179250577
H     -3.8023204046    -1.1898198690    -0.4558820926
C     -5.2826835138     1.1157914429     0.2573754411
H     -4.4560403247     0.4225032929     2.1066108826
H     -5.6053184210    -0.7125200468     1.3671784923
C     -6.3137326260     1.9983125493     0.9695994731
Cl    -6.0646884336     0.3668841067    -1.3142807550
H     -4.4652575554     1.7364798737    -0.1424759573
C      6.6228507334     2.6617391515     0.9932802791
Cl     6.5390593179    -0.0643903179     1.5781562049
H      4.8011036890     1.6111909671     1.5445940531
H      6.9384618618     2.8334201491     2.0370069330
H      6.1041884531     3.5726684047     0.6437454897
H      7.5208743275     2.5165557008     0.3687566735
C     -6.7909419173     3.2174656135     0.1624762413
H     -5.8173307812     2.3487104383     1.8964362389
H     -7.1726131550     1.3801208418     1.2932151751
H     -7.3834776486     2.9182798552    -0.7178129104
H     -5.9364684593     3.8205435168    -0.1907638462
H     -7.4248264140     3.8657531115     0.7894453011
