44
pvc config_48010 from config_48010.mcos (coord_rad bohr -> angstrom)
C      6.8166980618     0.2762943197    -0.0856994622
C      5.4069986749     0.8415662558    -0.3658631530
C      4.2481050335    -0.1204028472    -0.0564535795
H      5.3192424315     1.1814557738    -1.4144231985
H      5.2569046004     1.7317285622     0.2770366973
C      2.8776616748     0.5549240065    -0.2407465973
H      4.3396839731    -0.5537175675     0.9513769191
Cl     4.3479560440    -1.6142099950    -1.2216890009
C      1.6332355370    -0.2788053641     0.1117965650
H      2.7688162642     0.8784768041    -1.2954412654
H      2.8829735569     1.4767416784     0.3734256331
C      0.3279253522     0.4865892570    -0.1635243586
Cl     1.6977485438    -0.7234533927     1.9506042548
H      1.6438912081    -1.2458971657    -0.4156756898
C     -0.9988544097    -0.2300808212     0.1387426915
H      0.3437929226     0.7833180060    -1.2313056628
H      0.3302831663     1.4268449284     0.4233096311
C     -2.2195121261     0.6541473126    -0.1719571566
H     -1.0267271592    -0.5870830864     1.1805313934
Cl    -1.0956954786    -1.7970556896    -0.9186526448
C     -3.6062594764     0.0701199103     0.1509067073
H     -2.2176701985     0.9122172157    -1.2492357738
H     -2.0868991756     1.6053177255     0.3818194587
C     -4.7359974332     1.0276519223    -0.2608781481
Cl    -3.7120604987    -0.2509535151     2.0177215559
H     -3.7290537367    -0.9246978628    -0.3032199291
C     -6.1696156393     0.4842964898    -0.0740847675
H     -4.5832629996     1.2515097326    -1.3359195708
H     -4.6080705773     1.9806352431     0.2853309078
C     -6.5403918844    -0.6992818713    -0.9716432599
Cl    -7.3289892587     1.9568633711    -0.4507939146
H     -6.3810553568     0.2561743791     0.9827512167
C      7.1193908957     0.0089024301     1.3842911859
Cl     8.0400383491     1.5994192004    -0.7211426608
H      7.0307191978    -0.6025818065    -0.7122234090
H      8.1704795618    -0.2882146293     1.5482750713
H      6.4867726492    -0.8271893275     1.7328647924
H      6.8953025255     0.8907493936     2.0087120034
C     -7.9624219636    -1.2578857867    -0.7867679875
H     -5.8145156448    -1.5025057590    -0.7332407635
H     -6.3577047805    -0.4279130397    -2.0288530111
H     -8.1504750439    -1.5413866419     0.2641762227
H     -8.0990233379    -2.1586422403    -1.4070033794
H     -8.7291387424    -0.5239212418    -1.0845893929
