44
pvc config_7590 from config_7590.mcos (coord_rad bohr -> angstrom)
C      4.9112668260     0.7856878519    -0.0544294511
C      4.4448727949    -0.6210465059    -0.4660103912
C      3.6099809962    -1.3571786232     0.6069150135
H      5.3318897643    -1.2212361953    -0.7444132023
H      3.8492483279    -0.5003037280    -1.3909069476
C      2.2433025662    -0.7341971584     0.9750454201
H      4.1984550174    -1.4663397477     1.5311303546
Cl     3.3949883428    -3.1447123408    -0.0048662416
C      1.3685143627    -0.1279795767    -0.1337169561
H      2.4895631804     0.1138672897     1.6470194729
H      1.6482926598    -1.4353440111     1.5895562703
C      0.1708443259     0.6511824111     0.4526065690
Cl     0.6893407499    -1.4671215059    -1.2870228927
H      1.9522594812     0.5340917017    -0.7928482133
C     -0.7098403867     1.4176677550    -0.5468605527
H      0.5682030084     1.3629228126     1.2024500331
H     -0.4774568548    -0.0576814285     1.0046780056
C     -1.8951587445     2.1696321769     0.1013584557
H     -1.0377021471     0.7719607725    -1.3748539835
Cl     0.3446631056     2.7583294432    -1.3797619347
C     -2.9817097648     1.2142608992     0.6494393133
H     -2.3626372240     2.8423896127    -0.6412318155
H     -1.5049305317     2.7988911963     0.9226576575
C     -3.7594571230     0.4543915920    -0.4346959989
Cl    -4.1964935394     2.3254155893     1.6093768379
H     -2.5844662636     0.5440608199     1.4243965413
C     -4.7941870003    -0.5613038004     0.1035211231
H     -3.0194422090    -0.1028523423    -1.0432218185
H     -4.2394812724     1.1897217168    -1.1065468806
C     -4.2074522118    -1.7762925114     0.8259998472
Cl    -5.7778699564    -1.1464215443    -1.4282607120
H     -5.5568706426    -0.0642735552     0.7236048303
C      5.5893948454     1.5404751691    -1.1915862470
Cl     6.1583324690     0.6326285076     1.3824321282
H      4.0953048738     1.3808740778     0.3832528379
H      5.9400651759     2.5368198627    -0.8716033657
H      4.8576377654     1.6861012304    -2.0064918895
H      6.4460417988     0.9746035330    -1.5961381411
C     -5.2315292725    -2.7856972379     1.3744935962
H     -3.6239884116    -1.3740591991     1.6784749735
H     -3.4748040456    -2.2762933853     0.1649530180
H     -4.7170815629    -3.5676816538     1.9560942039
H     -5.7895993007    -3.2806058136     0.5628437662
H     -5.9618937837    -2.2952567478     2.0424136998
