44
pvc config_41530 from config_41530.mcos (coord_rad bohr -> angstrom)
C      4.9065710839     1.4517781220     0.2469667089
C      3.4208062122     1.1033643204     0.0063301681
C      3.1538333015    -0.3542221225    -0.4022559398
H      2.9747568112     1.7737916693    -0.7513053039
H      2.8689983551     1.2706868871     0.9526046196
C      1.6438218503    -0.6522774825    -0.5077647264
H      3.6430058955    -1.0676724587     0.2776149806
Cl     3.9531875156    -0.6843720549    -2.0893794499
C      1.2681385615    -2.1075120057    -0.8351136225
H      1.1993972506    -0.0093418516    -1.2931789863
H      1.1906853103    -0.3510869552     0.4562899331
C     -0.2264629104    -2.3862940717    -1.1021760639
Cl     1.8436771831    -3.2195624209     0.5918580078
H      1.8515257501    -2.4544778166    -1.7029962686
C     -1.1891876504    -1.9265289301     0.0238596206
H     -0.3454263836    -3.4716214806    -1.2767975524
H     -0.4898906417    -1.8907885076    -2.0560780509
C     -1.7689068811    -0.5149576475    -0.1935876144
H     -0.7271706510    -2.0298956494     1.0178170874
Cl    -2.6519701414    -3.1458979714     0.0493022102
C     -2.7483679923     0.0159622196     0.8696987589
H     -2.2927893958    -0.5019269279    -1.1684757451
H     -0.9281042477     0.1975960592    -0.2880643629
C     -3.2309015073     1.4601082836     0.6003011742
Cl    -1.8627656577     0.0593731824     2.5474883828
H     -3.5952231511    -0.6719804504     1.0154363667
C     -4.1297751187     1.6193251182    -0.6350289168
H     -2.3438119493     2.0998937080     0.4343523568
H     -3.7628682638     1.8685631124     1.4798103213
C     -4.5228374812     3.0755633538    -0.9332176148
Cl    -5.7520505656     0.6495953001    -0.3452214222
H     -3.7000811593     1.1464915870    -1.5309639898
C      5.5391517888     0.7604464583     1.4493899608
Cl     4.9550419258     3.3379876711     0.5438197551
H      5.5064017046     1.3125510166    -0.6649755313
H      5.6103612066    -0.3224524967     1.2422620730
H      4.9283706258     0.8954914834     2.3584256974
H      6.5635535278     1.1217732824     1.6490646030
C     -3.3038472526     3.9532858499    -1.2891228304
H     -5.0532342505     3.4999837204    -0.0608775977
H     -5.2327050912     3.0879091624    -1.7807857897
H     -2.6698049635     3.4721160638    -2.0537469688
H     -2.6719818125     4.1658769614    -0.4115155669
H     -3.6432249182     4.9191680767    -1.6973379231
