44
pvc config_9400 from config_9400.mcos (coord_rad bohr -> angstrom)
C     -5.8839408079    -1.2356215476    -1.0428160394
C     -5.5073859811     0.2547699198    -1.0807534473
C     -4.3283929106     0.6415279536    -0.1605098428
H     -6.4058668016     0.8528447671    -0.8405867626
H     -5.2382312444     0.4876208824    -2.1298202942
C     -2.9657127106     0.1159811011    -0.6405705215
H     -4.5284138568     0.3561020080     0.8836810914
Cl    -4.2698451679     2.5408778283    -0.1393008809
C     -1.7238506543     0.4904693839     0.1876278449
H     -2.7905618069     0.4685672719    -1.6766892921
H     -3.0352123385    -0.9886049172    -0.6950454473
C     -0.4269850242    -0.0694402431    -0.4183081944
Cl    -1.9352117801    -0.2066476820     1.9366045616
H     -1.6580567867     1.5821474563     0.3220027034
C      0.8924878448     0.2348736279     0.3106458993
H     -0.3633521251     0.3119140075    -1.4570440659
H     -0.5094628936    -1.1722351021    -0.4941009972
C      2.1045447507    -0.3930116686    -0.3998709779
H      0.8455759381    -0.0845028344     1.3640371765
Cl     1.1275483997     2.1120496947     0.3772954702
C      3.4791522836    -0.2032630980     0.2651441425
H      2.1791952336     0.0196370500    -1.4248661665
H      1.8973379203    -1.4767149228    -0.5089747352
C      4.6113574856    -0.8107915757    -0.5785069936
Cl     3.4501350795    -1.0364985997     1.9700636031
H      3.6665854415     0.8587120177     0.4875656266
C      6.0353436452    -0.5282335477    -0.0530135584
H      4.5122414019    -0.3844607264    -1.5947835739
H      4.4402205075    -1.8989769594    -0.6743273375
C      6.4779492331     0.9461406178    -0.0493775787
Cl     7.2059930451    -1.5478431548    -1.1645048885
H      6.1783200796    -0.9697130856     0.9457480543
C     -6.9393121876    -1.6052159215    -2.0784969808
Cl    -6.5741173982    -1.6612513630     0.6858755388
H     -5.0014898231    -1.8868880070    -1.1320550319
H     -6.5269345309    -1.4160171930    -3.0859918533
H     -7.8509360680    -0.9948020564    -1.9603521660
H     -7.2151661980    -2.6725496964    -2.0225029306
C      6.2301560198     1.7219123451    -1.3546072241
H      7.5489538444     1.0125383887     0.2233497371
H      5.9281637854     1.4268812994     0.7833518657
H      6.6640899829     2.7337853482    -1.2839647493
H      5.1560613142     1.8423404651    -1.5720824150
H      6.6979360764     1.2201161573    -2.2186354768
