20
PXUULQAPEKKVAH-UHFFFAOYSA-N optimised
C        2.489618     -0.415437      0.403053
O        3.489405     -0.304015     -0.261816
C        1.268571     -1.266377     -0.064704
C        0.423715     -0.621809     -1.226196
C       -0.227065      0.793685     -0.996247
C       -1.350844      1.030073      0.089264
C       -2.662310      0.167397      0.024511
F       -3.569763      0.711379      0.860932
F       -3.173035      0.159499     -1.221756
F       -2.430923     -1.098184      0.416531
F       -1.727114      2.331814     -0.062045
F       -0.813531      0.880477      1.327606
F        0.790730      1.649809     -0.667518
F       -0.738661      1.178082     -2.195033
F       -0.561225     -1.499108     -1.564563
F        1.252865     -0.475627     -2.294485
F        1.759221     -2.437910     -0.562013
F        0.434066     -1.564093      0.969566
O        2.270772      0.130427      1.616183
H        3.075509      0.649915      1.833139
