62
pp config_91490 from config_91490.mcos (coord_rad bohr -> angstrom)
C      4.3542549489    -1.8898779236    -0.6595709698
C      4.5259285005    -0.9990572706     0.5937105979
C      3.3909751278     0.0494109348     0.7162645345
C      3.3305331804     1.1526473862    -0.3675116362
H      3.4785693956     0.5514832066     1.7019496336
H      2.4282215604    -0.4996694040     0.7424798372
C      2.0581921820     2.0248474495    -0.2109967902
C      0.6919636331     1.3441840771    -0.4763588150
H      2.1439681879     2.8954428438    -0.8942273771
H      2.0537064550     2.4456128214     0.8161044990
C     -0.4445220350     2.3181739215    -0.0761878637
H      0.6212206896     0.4457214141     0.1665850711
C      0.5603319392     0.8980313275    -1.9448986932
C     -1.8905554438     1.7582880869    -0.0708464219
H     -0.4067730758     3.1876318640    -0.7652240295
H     -0.2290456754     2.7235591271     0.9342885061
C     -2.0812810531     0.7114346038     1.0532048197
H     -2.0750867556     1.2721533342    -1.0481429591
C     -2.8892808203     2.9241681086     0.0696573257
C     -3.4238487647    -0.0652096945     1.0733552329
H     -1.9624675061     1.2368419556     2.0234369531
H     -1.2618375370    -0.0340473759     1.0115924974
C     -3.5495871904    -1.0037339819    -0.1508532011
H     -4.2497955759     0.6710903617     1.0402961472
C     -3.5415323317    -0.8446777658     2.3983366597
C     -4.9028025786    -1.7338890761    -0.3329811046
H     -2.7422393031    -1.7621202996    -0.0822150192
H     -3.3514848717    -0.4305942872    -1.0788526276
C      5.5456872976    -2.8182395041    -0.9511157492
H      4.1868963528    -1.2473903701    -1.5443604161
H      3.4297778768    -2.4901746451    -0.5398627013
H      6.4802670756    -2.2391039302    -1.0630225359
H      5.3896773487    -3.3822463761    -1.8872722327
H      5.7053520566    -3.5556703930    -0.1461862515
C     -6.0654273742    -0.7556466716    -0.5836415069
H     -5.1236928753    -2.3007029350     0.5928810710
C     -4.7994456900    -2.7495878541    -1.4872489596
H     -7.0175502215    -1.2987996453    -0.7213780989
H     -5.8825892432    -0.1607057544    -1.4982939245
H     -6.2047595158    -0.0494851906     0.2528471422
H      5.4926618296    -0.4641867062     0.4965681480
C      4.5841512709    -1.8427865412     1.8829792390
H      3.6459350740    -2.4136100331     2.0177279887
H      4.7163949729    -1.2000594342     2.7713378870
H      5.4166303062    -2.5665997030     1.8690198652
H      3.2981333988     0.6730714367    -1.3648292145
C      4.5780768470     2.0573165309    -0.3219788673
H      5.5097609599     1.4914163229    -0.4922777420
H      4.6639602433     2.5544791071     0.6627438333
H      4.5223719394     2.8461896777    -1.0929741578
H      1.3556058388     0.1890470238    -2.2322056631
H      0.6280408694     1.7714009044    -2.6207032670
H     -0.4043834588     0.3982972965    -2.1379843705
H     -2.7450629553     3.6672804828    -0.7346374734
H     -2.7496091502     3.4433472040     1.0367102836
H     -3.9376014364     2.5832809657     0.0227324225
H     -2.7433763950    -1.6070012995     2.4751453367
H     -4.5100726814    -1.3650568381     2.4913650296
H     -3.4433675443    -0.1672689822     3.2651253722
H     -3.9923394045    -3.4819218163    -1.3079597883
H     -4.5817044902    -2.2364046074    -2.4428297471
H     -5.7431826321    -3.3093041833    -1.6154049119
