62
pp config_15380 from config_15380.mcos (coord_rad bohr -> angstrom)
C      5.2971618752     1.2170918154    -0.2745524350
C      4.4959209005     0.0073405399     0.2700428760
C      3.6182439210    -0.6324206868    -0.8358602150
C      2.6004118071    -1.7210700599    -0.3829356238
H      4.3130807531    -1.0736226606    -1.5797486515
H      3.0633272148     0.1573139372    -1.3771829427
C      1.1732694661    -1.1666433839    -0.1387987540
C      0.9717605427    -0.1571335500     1.0161008079
H      0.4919867109    -2.0230416577     0.0490191273
H      0.8322257911    -0.7104743775    -1.0892879245
C     -0.4793591467     0.3933304524     1.0226271604
H      1.6658883589     0.6933445122     0.8721323942
C      1.2769348711    -0.7975849021     2.3844236757
C     -0.8690921271     1.3514081626    -0.1286842950
H     -0.6527201989     0.9297171942     1.9782409241
H     -1.1668457469    -0.4761164706     1.0372727053
C     -2.3982996033     1.6049876361    -0.1596638789
H     -0.5753087742     0.8916652047    -1.0921770059
C     -0.1303876726     2.6988942442    -0.0065275842
C     -3.3096856329     0.4124238058    -0.5452868806
H     -2.6033385425     2.4336313968    -0.8691879726
H     -2.7076152733     1.9800017064     0.8372058170
C     -4.8079122878     0.8103070804    -0.3728869715
H     -3.0951895073    -0.4245465983     0.1470616932
C     -3.0175315540    -0.0703402709    -1.9811711897
C     -5.7532257282    -0.2602689589     0.2364599576
H     -5.2093213632     1.1219837229    -1.3572855351
H     -4.8719947999     1.7070684736     0.2746176181
C      4.4527780401     2.4400969854    -0.6661155389
H      5.8987317815     0.8815562883    -1.1437180097
H      6.0289141938     1.5234483271     0.4981342550
H      3.8472323062     2.7929623402     0.1881578834
H      3.7609002781     2.2220183728    -1.4971809739
H      5.0955171432     3.2786552704    -0.9869087928
C     -5.8064538781    -1.5692719846    -0.5729359677
H     -6.7701213006     0.1824950703     0.2102104454
C     -5.4233736308    -0.5465270316     1.7143694193
H     -6.0638876622    -1.3830383447    -1.6306344019
H     -6.5654515377    -2.2554950386    -0.1563200374
H     -4.8365163282    -2.0981983053    -0.5506394143
H      3.8365299421     0.3815309860     1.0786261636
C      5.4688405360    -1.0214836818     0.8777001762
H      6.1593102567    -1.4062181159     0.1034888629
H      4.9431731533    -1.8874494859     1.3150758610
H      6.0794937714    -0.5653027827     1.6770949277
H      2.9637442581    -2.1795770736     0.5567248751
C      2.5202973524    -2.8457348675    -1.4372324698
H      3.5099476190    -3.3039980528    -1.6080664601
H      2.1637085936    -2.4510077424    -2.4072158548
H      1.8226420091    -3.6431508790    -1.1246451375
H      1.1336909106    -0.0704085575     3.2034549316
H      2.3127179683    -1.1713257108     2.4479200263
H      0.6013563961    -1.6533042059     2.5730502422
H     -0.3972728517     3.3748618358    -0.8383676749
H      0.9656798403     2.5743878013    -0.0176086988
H     -0.3998147588     3.2058172284     0.9392173693
H     -3.6960291794    -0.8866705838    -2.2805036124
H     -1.9842655131    -0.4420020432    -2.0916693192
H     -3.1566826318     0.7591768519    -2.6988628280
H     -4.4287559578    -1.0152087359     1.8252070927
H     -6.1631309433    -1.2374553325     2.1571555117
H     -5.4273246834     0.3815681696     2.3137089060
