62
pp config_3310 from config_3310.mcos (coord_rad bohr -> angstrom)
C     -5.7284955681     0.6175500983    -0.0725198394
C     -5.0290652999    -0.7649687327    -0.1527870777
C     -3.4826223440    -0.6860778942    -0.1155834130
C     -2.7990832900     0.1289276995    -1.2404218964
H     -3.0815097160    -1.7201265776    -0.1536489517
H     -3.1772155804    -0.2825341702     0.8687144958
C     -1.2660503053     0.2109365656    -1.0179039734
C     -0.7767017039     1.0745080478     0.1699989224
H     -0.7933272447     0.6109975516    -1.9385546664
H     -0.8861754158    -0.8249692349    -0.9100657683
C      0.7338521258     0.8507594097     0.4424522827
H     -1.3380418993     0.7846572503     1.0793782860
C     -1.0353236735     2.5727612619    -0.0852334883
C      1.1392943539    -0.5194028811     1.0376096567
H      1.0905720305     1.6371577092     1.1392777539
H      1.2772236176     1.0224186879    -0.5085740474
C      2.6793849185    -0.7047693740     1.0242735882
H      0.6891975862    -1.3234368914     0.4238545657
C      0.6169056385    -0.6804949945     2.4791660081
C      3.3494168884    -0.8892862234    -0.3588801227
H      2.9363931272    -1.5904767206     1.6413206613
H      3.1274448415     0.1652462951     1.5452136034
C      4.8949157348    -0.8364995719    -0.2474331944
H      3.0260670198    -0.0670386635    -1.0262778122
C      2.9288162922    -2.2201032061    -1.0136970118
C      5.5288693883     0.5246207793     0.1257330292
H      5.3300879268    -1.1589697508    -1.2162626120
H      5.2141619359    -1.5968378553     0.4956502433
C     -5.4420699677     1.4395466986     1.1966067412
H     -6.8202853772     0.4524924449    -0.1577088295
H     -5.4488850817     1.2163902806    -0.9597515189
H     -5.7349320160     0.8989028913     2.1131200387
H     -6.0047750948     2.3890548141     1.1805549792
H     -4.3720442571     1.6934767987     1.2888830198
C      7.0368129943     0.3480414818     0.3906898297
H      5.0645753364     0.8856467017     1.0647150369
C      5.2980346616     1.5902839211    -0.9619791428
H      7.5066779107     1.3028115348     0.6870953720
H      7.5551639939    -0.0124690793    -0.5178275373
H      7.2209504118    -0.3853009203     1.1957257848
H     -5.3228192083    -1.2073374481    -1.1252901970
C     -5.5315098296    -1.7237757839     0.9453516090
H     -5.2407550554    -1.3764429169     1.9527560308
H     -5.1081653500    -2.7347998966     0.8097814361
H     -6.6328647835    -1.8131295323     0.9260276405
H     -3.2077754503     1.1583089199    -1.2286463707
C     -3.0826385915    -0.4736192238    -2.6308426087
H     -2.5852813499     0.1125891698    -3.4237564665
H     -4.1610781850    -0.4987691676    -2.8621531437
H     -2.7033611754    -1.5112953390    -2.6919992769
H     -0.7023982332     3.1844825328     0.7720248506
H     -2.1045957330     2.7883169448    -0.2519637076
H     -0.4814545915     2.9156032411    -0.9793782142
H      1.0441913481     0.0994916480     3.1371383738
H      0.8999716803    -1.6636816375     2.8951644473
H     -0.4821989575    -0.5996301380     2.5359805301
H      3.2316999010    -3.0771956663    -0.3830672782
H      3.4074733551    -2.3434416968    -2.0013754775
H      1.8374301238    -2.2853842293    -1.1632154970
H      5.7431170186     1.2676679071    -1.9220924495
H      5.7653643019     2.5510805904    -0.6809762847
H      4.2257217525     1.7828451498    -1.1373904348
