62
pp config_1720 from config_1720.mcos (coord_rad bohr -> angstrom)
C      5.7479331341    -0.7251912538    -0.1056868310
C      4.2501495022    -0.4961519560    -0.4464644817
C      3.7616887081     0.8875279059     0.0459317727
C      2.2263091758     1.1069675209     0.1075317007
H      4.1973578138     1.6671009838    -0.6099253362
H      4.1760419168     1.0787662519     1.0582590960
C      1.5763022506     0.2315314223     1.2074525976
C      0.0225734198     0.3292813849     1.3328954843
H      2.0333426501     0.4955131378     2.1833754505
H      1.8540179936    -0.8207758236     1.0229791640
C     -0.6443013145    -1.0549009261     1.5891689562
H     -0.3715586970     0.7341897460     0.3793418094
C     -0.3810975296     1.2998186022     2.4636501177
C     -1.0644032679    -1.8930929624     0.3510849701
H     -1.5462985158    -0.9014999251     2.2123779759
H      0.0399991762    -1.6649356089     2.2114237712
C     -2.2050044168    -1.2499040766    -0.4784437376
H     -1.4444237920    -2.8541072781     0.7514277555
C      0.1151864522    -2.2383624586    -0.5787225430
C     -3.5587114217    -1.0223778311     0.2380745893
H     -2.3969450946    -1.8982524518    -1.3587719518
H     -1.8406506690    -0.2891298848    -0.8907749908
C     -4.5676981107    -0.3054721615    -0.6961771478
H     -3.3889799847    -0.3780977131     1.1227324306
C     -4.1726969675    -2.3474532849     0.7316628993
C     -4.2667570162     1.1675253793    -1.0620148735
H     -5.5727376789    -0.3387474891    -0.2260300666
H     -4.6510703281    -0.8982921098    -1.6308229968
C      6.7405490952     0.2675471327    -0.7377742083
H      6.0201601283    -1.7537213629    -0.4129412775
H      5.8608803569    -0.6958285145     0.9952349451
H      7.7781998831     0.0042866767    -0.4684040898
H      6.5634048260     1.3009552590    -0.3931971648
H      6.6772666214     0.2681854621    -1.8395033817
C     -5.2166651960     1.6384639518    -2.1805546596
H     -3.2319075718     1.2315729021    -1.4527326315
C     -4.3770537995     2.0998318158     0.1586611829
H     -6.2699630655     1.5930804497    -1.8450556629
H     -5.1232393225     1.0059069812    -3.0810252931
H     -5.0044490065     2.6819139703    -2.4747672986
H      3.6927527057    -1.2760347923     0.1095967337
C      3.9682125432    -0.7058273002    -1.9467858137
H      2.8891093469    -0.6515726463    -2.1711336966
H      4.3266363538    -1.6954472294    -2.2838609116
H      4.4712058979     0.0620520487    -2.5609950062
H      1.7877191052     0.7994121274    -0.8640206804
C      1.9336323362     2.6088748670     0.2898918903
H      0.8527993159     2.8276466837     0.2599415706
H      2.4157487444     3.2007048697    -0.5086638031
H      2.3227948557     2.9720339319     1.2594382146
H     -0.0588361712     0.9009821077     3.4432880350
H     -1.4762661435     1.4365615556     2.5025219248
H      0.0826224380     2.2934628277     2.3438203584
H     -0.2110944622    -2.9217600653    -1.3827510601
H      0.9349874092    -2.7318731536    -0.0275600940
H      0.5304555585    -1.3355596098    -1.0614970526
H     -3.5184799233    -2.8678023318     1.4515246173
H     -4.3513997806    -3.0359836361    -0.1159127199
H     -5.1419969710    -2.1705891221     1.2304726769
H     -3.6819058305     1.8141299523     0.9666146199
H     -5.4022321179     2.0743641469     0.5736897640
H     -4.1519534341     3.1453740473    -0.1180049350
