62
pp config_80350 from config_80350.mcos (coord_rad bohr -> angstrom)
C      6.3267073764    -0.0584995575     0.7157122698
C      4.8430195824    -0.3988790452     0.4086438687
C      4.2316244637     0.5935953554    -0.6096297172
C      2.6848641076     0.5947146280    -0.7295192531
H      4.6584412457     0.3797655728    -1.6094042869
H      4.5596498164     1.6235138578    -0.3552056172
C      2.0233021854     1.1957451002     0.5342571121
C      0.4857058235     1.0350816517     0.6620191673
H      2.2714426189     2.2770216275     0.5591014635
H      2.4844380924     0.7604090703     1.4435974124
C      0.0962166250    -0.4392465962     0.9277308827
H      0.0249136673     1.3609905076    -0.2904305000
C     -0.0355347483     1.9623207608     1.7779745809
C     -1.4132212741    -0.7890338121     0.8494304775
H      0.4715380645    -0.7077060397     1.9368540387
H      0.6334817930    -1.1024942000     0.2202998584
C     -1.9315631127    -0.7086136264    -0.6069525835
H     -1.9682531586    -0.0578952197     1.4682512049
C     -1.6470056604    -2.1886341914     1.4518956039
C     -3.4645363524    -0.8243958674    -0.8140125970
H     -1.4339241520    -1.5153524528    -1.1839753545
H     -1.5994609679     0.2420696586    -1.0705666062
C     -4.2024463888     0.4144510875    -0.2515806767
H     -3.8194833392    -1.7228762770    -0.2733415494
C     -3.7639511443    -1.0284822512    -2.3125085084
C     -5.7497959229     0.3579841418    -0.2423903644
H     -3.8814660643     1.2978608709    -0.8416221043
H     -3.8686723383     0.6048019184     0.7882944996
C      7.2912202491    -0.1164293889    -0.4828814297
H      6.6855355959    -0.7502940409     1.5024291020
H      6.3646807140     0.9548250579     1.1600137905
H      7.3017762298    -1.1136981061    -0.9552072232
H      8.3237408716     0.1060634188    -0.1619804092
H      7.0232821748     0.6183364265    -1.2615326659
C     -6.2881237022    -0.7468252966     0.6855994678
H     -6.1000062420     0.1441322034    -1.2714940697
C     -6.3225322494     1.7283210259     0.1687246958
H     -5.9574651080    -0.5744623137     1.7272000359
H     -5.9406885044    -1.7503976978     0.3856622610
H     -7.3927596459    -0.7635294158     0.6826449247
H      4.3025265688    -0.2814934893     1.3692104355
C      4.6734781007    -1.8634968889    -0.0398070302
H      5.1233734852    -2.5574613125     0.6934160503
H      5.1579180617    -2.0443260363    -1.0158062504
H      3.6097243708    -2.1381446916    -0.1436090623
H      2.3495803743    -0.4546003214    -0.8446994931
C      2.2678724542     1.3643236192    -1.9984597201
H      1.1746710104     1.3593790138    -2.1496747955
H      2.7305147886     0.9229705109    -2.8989832326
H      2.5918399976     2.4203755360    -1.9366361427
H      0.2363169831     3.0139338390     1.5779026378
H      0.4028590581     1.6809151222     2.7539336623
H     -1.1334713654     1.9164894862     1.8797946328
H     -2.7151008380    -2.4656540379     1.4615392561
H     -1.2813941451    -2.2374388559     2.4929440655
H     -1.1072180514    -2.9585484242     0.8689497459
H     -3.2318052903    -1.9131709799    -2.7048470754
H     -3.4347692440    -0.1502468646    -2.8992654679
H     -4.8402716384    -1.1750823226    -2.5065036811
H     -5.9753025912     2.5291529469    -0.5079978930
H     -6.0054575796     1.9939932619     1.1947717529
H     -7.4270777950     1.7238680994     0.1504951728
