62
pp config_62750 from config_62750.mcos (coord_rad bohr -> angstrom)
C     -6.0850997245    -0.2061546447     0.6079804314
C     -4.6079381721     0.2353073058     0.4215968764
C     -3.9242832121    -0.5417873418    -0.7290702341
C     -2.3766891857    -0.4576751061    -0.7975486012
H     -4.3351657596    -0.1785616476    -1.6916623894
H     -4.2099315233    -1.6128741830    -0.6636016359
C     -1.7178740197    -1.2297047948     0.3708460177
C     -0.1945981479    -1.0204626127     0.5746818361
H     -1.9108876824    -2.3104044130     0.2092581085
H     -2.2233880659    -0.9734582293     1.3237127228
C      0.1125348468     0.4003125120     1.1073906441
H      0.3068460295    -1.1512361179    -0.4039762520
C      0.3473377118    -2.1018436998     1.5304786916
C      1.5955903795     0.8545936345     1.0657596756
H     -0.2495990844     0.4511537999     2.1547478833
H     -0.4817778919     1.1498121132     0.5470980095
C      2.0481425972     1.1401887864    -0.3891191454
H      2.2240206550     0.0454643564     1.4844144330
C      1.7713574567     2.1001399330     1.9569246997
C      3.5687608499     1.3931509285    -0.6166513367
H      1.4782322201     2.0279978081    -0.7313959699
H      1.7313664868     0.3097568256    -1.0494039843
C      4.3337920320     0.1277590100    -1.0786663161
H      4.0162188041     1.7442473771     0.3331923135
C      3.7744681572     2.5107016059    -1.6608043024
C      4.4331528258    -1.0562128089    -0.0892079370
H      5.3679296647     0.4214612255    -1.3576081107
H      3.8560262027    -0.2305416952    -2.0135086439
C     -7.0145264698     0.0309634842    -0.5963146407
H     -6.4956431280     0.3215840830     1.4906840093
H     -6.0951029343    -1.2830896766     0.8644690901
H     -6.6936361121    -0.5433424338    -1.4824015898
H     -7.0513309486     1.0955852504    -0.8846018960
H     -8.0463337189    -0.2809178039    -0.3582480429
C      5.0351352534    -2.2850737564    -0.7982074566
H      3.4096428149    -1.3263723770     0.2370234684
C      5.2615097660    -0.7021975187     1.1593379596
H      5.0922486474    -3.1529247682    -0.1174438329
H      6.0607462081    -2.0695170549    -1.1528943840
H      4.4317072250    -2.5794461982    -1.6749781535
H     -4.0938830778    -0.0287975001     1.3674457262
C     -4.4859395224     1.7608436194     0.2407738445
H     -4.9409602360     2.0913652706    -0.7098665715
H     -3.4321461558     2.0882335307     0.2332944974
H     -4.9928736619     2.2994183554     1.0620968032
H     -2.0880452292     0.6095262767    -0.7289035237
C     -1.8934456720    -0.9892612638    -2.1615242742
H     -2.1679935562    -2.0541052825    -2.2828968919
H     -0.7985128517    -0.9120281791    -2.2756986656
H     -2.3551085205    -0.4262080283    -2.9919793455
H      1.4354395214    -2.0093953891     1.6899163331
H      0.1535442967    -3.1150428341     1.1356915744
H     -0.1422924023    -2.0255322967     2.5194449002
H      1.4779914320     1.8861357519     3.0000114243
H      1.1378965137     2.9303379881     1.5915841125
H      2.8149946722     2.4593599751     1.9719553134
H      4.8468983923     2.7245760103    -1.8170417020
H      3.2808233944     3.4467696844    -1.3465329364
H      3.3455808147     2.2199728251    -2.6383218775
H      4.8341698013     0.1496605322     1.7150224526
H      6.2958173735    -0.4319055486     0.8743630634
H      5.3181448703    -1.5582410149     1.8556015660
