62
pp config_73540 from config_73540.mcos (coord_rad bohr -> angstrom)
C     -4.1332963811    -1.6190832781     0.9512127916
C     -4.5582194034    -0.9191021919    -0.3614382796
C     -3.3536661136    -0.2595670744    -1.0786797212
C     -2.6651776654     0.9318853423    -0.3672963688
H     -3.6877022909     0.0869239085    -2.0788044547
H     -2.5951679533    -1.0471309745    -1.2701145313
C     -1.3801291627     1.3093707962    -1.1460805400
C     -0.4665876669     2.3942928871    -0.5236901220
H     -1.6807305587     1.6528437521    -2.1582018708
H     -0.7837197096     0.3893535253    -1.3092370354
C      0.0899857564     2.0130562134     0.8752080782
H     -1.0826509021     3.3030105183    -0.3704680029
C      0.6433149833     2.7735577816    -1.5239444226
C      1.0648158213     0.7961451780     0.9439827965
H     -0.7700883543     1.8197639140     1.5436944959
H      0.5952871545     2.9027151103     1.3011378469
C      2.5401837868     1.2697729521     1.0010333065
H      0.9251908462     0.1923052303     0.0268711691
C      0.7224407607    -0.0986214738     2.1524107154
C      3.6404796222     0.1836969511     0.8851622709
H      2.6765620566     1.8100165971     1.9603256151
H      2.7127475274     2.0233438081     0.2075334697
C      3.6466030705    -0.4679704346    -0.5186726737
H      3.4326398757    -0.6016193279     1.6374120191
C      5.0084895958     0.8086537159     1.2246345686
C      4.6048311492    -1.6665881021    -0.7263014973
H      3.8969229731     0.3201528285    -1.2587720916
H      2.6233021658    -0.8102721407    -0.7729983339
C     -5.3028708988    -2.1237441330     1.8136083386
H     -3.5275278274    -0.9202635494     1.5580495275
H     -3.4610183343    -2.4634725176     0.6973481830
H     -4.9389590142    -2.5589279495     2.7607168913
H     -5.8929778076    -2.9017245252     1.3001377197
H     -5.9909893751    -1.2976753642     2.0693816824
C      4.2388996750    -2.8687783319     0.1637669025
H      5.6320745396    -1.3447444200    -0.4644633067
C      4.6108194337    -2.0815407132    -2.2103462241
H      4.9282422166    -3.7145082478    -0.0097404842
H      3.2136737188    -3.2198017181    -0.0591072359
H      4.2819845770    -2.6213126692     1.2383332281
H     -5.2900493698    -0.1278246986    -0.0991127349
C     -5.2544320349    -1.9003487092    -1.3255937649
H     -6.1560830048    -2.3527004313    -0.8789616269
H     -4.5699552736    -2.7235202187    -1.6051983619
H     -5.5635350979    -1.3904325899    -2.2552610795
H     -2.3665475295     0.6060601353     0.6480330998
C     -3.6194406201     2.1329465947    -0.2258976205
H     -4.5284640183     1.8701211547     0.3416898156
H     -3.9380192881     2.4931485825    -1.2223967551
H     -3.1412538708     2.9773914038     0.2990411117
H      1.2938976597     3.5705919345    -1.1222369319
H      0.2077705002     3.1370547358    -2.4717956565
H      1.2860422144     1.9080310394    -1.7659475121
H     -0.3270406581    -0.4380630542     2.1084031837
H      0.8535241622     0.4589764418     3.0989571258
H      1.3614683031    -0.9970181593     2.2030459526
H      4.9902080960     1.2806506322     2.2230855207
H      5.2739970960     1.5903795789     0.4881327142
H      5.8198016716     0.0609545352     1.2252114797
H      4.9046486514    -1.2399679477    -2.8624998621
H      3.6056315964    -2.4175630853    -2.5275817524
H      5.3146003871    -2.9134495981    -2.3921134348
