62
pp config_84650 from config_84650.mcos (coord_rad bohr -> angstrom)
C     -3.6288990939     2.6810485233    -0.5472312520
C     -3.7824055509     1.1393846119    -0.5033424732
C     -3.5081438071     0.5864505562     0.9184936252
C     -3.4302211398    -0.9615754339     1.0704399633
H     -4.3175114144     0.9724920177     1.5717119594
H     -2.5708133883     1.0213470146     1.3148996490
C     -1.9856920314    -1.5186139091     1.0035525176
C     -1.1901129590    -1.3590282544    -0.3152631048
H     -2.0221505564    -2.6027962303     1.2429190541
H     -1.4053593714    -1.0464832697     1.8223946718
C      0.2459513570    -1.9043969481    -0.1007185408
H     -1.1212357494    -0.2792069279    -0.5533000732
C     -1.8861519994    -2.0773857877    -1.4867931336
C      1.2784353888    -1.6099434069    -1.2171726395
H      0.1713084508    -3.0041412856     0.0306474933
H      0.6381691898    -1.5170769896     0.8611604514
C      1.6833769192    -0.1122405708    -1.2931677971
H      0.8028870362    -1.8520472144    -2.1889427819
C      2.4964057198    -2.5440593015    -1.0756697653
C      2.5119475290     0.4483105420    -0.0943768247
H      0.7617106402     0.4894439289    -1.4069146707
H      2.2526099015     0.0465201357    -2.2304712224
C      4.0108277299     0.5723739452    -0.4706338793
H      2.4254040466    -0.2663616662     0.7465635355
C      1.9387994160     1.7983805969     0.3804352933
C      4.9899222491     0.9545652994     0.6650782463
H      4.0939295406     1.3258626547    -1.2806549936
H      4.3522010251    -0.3846453127    -0.9127842871
C     -2.1957683666     3.2013308660    -0.3557219885
H     -4.2965977917     3.1259662893     0.2183377865
H     -4.0090935261     3.0391462125    -1.5237738328
H     -1.5159862593     2.7753876893    -1.1154586487
H     -1.7872693330     2.9456609362     0.6366680132
H     -2.1566875493     4.3005427427    -0.4527785383
C      5.0435627944    -0.1091099137     1.7773890556
H      4.6489657148     1.9070025961     1.1170016689
C      6.3974701586     1.1933735213     0.0843708973
H      5.7575346010     0.1812909359     2.5689450719
H      5.3722881876    -1.0831528942     1.3688704986
H      4.0613596818    -0.2619131582     2.2568754515
H     -3.0384724874     0.7107144626    -1.2041540321
C     -5.1903219918     0.7504065759    -0.9942759122
H     -5.3749552086     1.1358478798    -2.0128050103
H     -5.9644630966     1.1750423587    -0.3274989484
H     -5.3378972533    -0.3426886234    -1.0218482891
H     -4.0241212546    -1.4297992832     0.2621870087
C     -4.0642510168    -1.3948228548     2.4096304014
H     -4.0437439387    -2.4927912083     2.5296750836
H     -5.1145382206    -1.0624156879     2.4796171326
H     -3.5174493268    -0.9547089940     3.2647891822
H     -2.9014308247    -1.6853411395    -1.6647548164
H     -1.9769098868    -3.1596656094    -1.2751701367
H     -1.3249877633    -1.9661535705    -2.4305512077
H      2.1834765978    -3.6019537757    -1.1237224144
H      3.0150431320    -2.3968240865    -0.1112079403
H      3.2335733691    -2.3710945360    -1.8799409098
H      2.0077823457     2.5559229628    -0.4225134252
H      2.4749048025     2.1939616863     1.2604772024
H      0.8746728340     1.6995870855     0.6558848193
H      6.7926027952     0.2693135991    -0.3781135745
H      7.1083896115     1.5051599958     0.8702215407
H      6.3844728653     1.9783563363    -0.6926236553
