62
pp config_43170 from config_43170.mcos (coord_rad bohr -> angstrom)
C     -5.4147757873     0.1696658297    -0.5867304600
C     -4.4136011011     1.3117387687    -0.2913624109
C     -2.9769762822     0.7740323725    -0.0682945172
C     -2.7344701499    -0.0771714364     1.2014657212
H     -2.2775844224     1.6347302631    -0.0335781081
H     -2.6928953271     0.1916971661    -0.9679695543
C     -1.3199628733    -0.7138475381     1.1898474963
C     -1.0580961474    -1.8211619895     0.1405692346
H     -1.1180680685    -1.1471772456     2.1912565181
H     -0.5835409337     0.1049019884     1.0617550430
C      0.4404616881    -2.2174940497     0.1040134785
H     -1.3382455143    -1.4397446339    -0.8603464084
C     -1.9114417855    -3.0742373126     0.4207474040
C      1.4405718725    -1.1611768489    -0.4294124729
H      0.5475732042    -3.1319458619    -0.5159227588
H      0.7437570006    -2.5111336626     1.1305407397
C      2.8853622096    -1.6639969923    -0.1838049445
H      1.2962522453    -0.2258985000     0.1450472847
C      1.1958002444    -0.8554266194    -1.9191571625
C      4.0426752889    -0.6746279139    -0.4762601694
H      3.0387658568    -2.5749848886    -0.7993187619
H      2.9733515881    -1.9940676607     0.8722052709
C      4.0205820850     0.5221513078     0.5047478018
H      3.9161557978    -0.2891872738    -1.5064092639
C      5.3855589058    -1.4296530980    -0.4190530886
C      5.0424286803     1.6557636037     0.2439336482
H      4.1823153227     0.1257072881     1.5286732340
H      3.0102359462     0.9781827159     0.5101263948
C     -6.8897866848     0.6053298154    -0.6162026806
H     -5.2994619232    -0.6236507108     0.1754917057
H     -5.1404584433    -0.2959516890    -1.5548356868
H     -7.1803062558     1.0830280654     0.3370735976
H     -7.5566401845    -0.2607910786    -0.7711250855
H     -7.0944078103     1.3262855229    -1.4258459425
C      4.8004615128     2.3621976303    -1.1028332701
H      6.0585954437     1.2151362308     0.2236520590
C      5.0004515077     2.6756273820     1.3985068427
H      4.8828255124     1.6699219412    -1.9582668305
H      5.5325242288     3.1742489315    -1.2614365047
H      3.7896223364     2.8109636242    -1.1302639105
H     -4.7482452174     1.8218826857     0.6349786131
C     -4.3995548524     2.3574578867    -1.4243850669
H     -5.3925719689     2.8107404628    -1.5844903343
H     -4.0853207576     1.8934520337    -2.3783843048
H     -3.6921417819     3.1753192999    -1.1999854678
H     -3.4798411625    -0.8950713012     1.2320010566
C     -2.9066335914     0.7631056778     2.4826687975
H     -2.7336188450     0.1492590442     3.3843540726
H     -3.9181781085     1.1962644515     2.5642779549
H     -2.1823414267     1.5992844122     2.5006656244
H     -1.6714618636    -3.4950743244     1.4154441743
H     -1.7196637679    -3.8595542219    -0.3318252419
H     -2.9927065851    -2.8548769870     0.4035345728
H      0.1735526177    -0.4811627059    -2.0998253614
H      1.3317455878    -1.7693164643    -2.5278058214
H      1.8931764381    -0.0907746109    -2.3018698055
H      5.3872585497    -2.2859811282    -1.1166071128
H      5.5693486982    -1.8240493716     0.5982254108
H      6.2389200662    -0.7829034417    -0.6853100563
H      5.2062604779     2.1925145746     2.3701805022
H      4.0045306915     3.1528917849     1.4644871234
H      5.7466043217     3.4772264210     1.2534262821
