62
pp config_2700 from config_2700.mcos (coord_rad bohr -> angstrom)
C      4.2805745465     1.8798981039     0.4769622131
C      4.0852182490     0.9932320708    -0.7809492161
C      2.9091362556    -0.0083376324    -0.6646371449
C      2.9697284504    -1.0221693192     0.5036296215
H      2.8493179066    -0.5828171554    -1.6123013716
H      1.9652121062     0.5664603850    -0.6035922037
C      1.7111317789    -1.9275068508     0.5318370913
C      0.3519945509    -1.2539940841     0.8550831336
H      1.8687389983    -2.7266276517     1.2849601357
H      1.6410491745    -2.4465775672    -0.4437719528
C     -0.8307866969    -2.2481676013     0.6412630689
H      0.2100399040    -0.3956017338     0.1702465444
C      0.3375743630    -0.7151294649     2.2999079388
C     -1.5793046728    -2.1895490009    -0.7183516662
H     -1.5762054439    -2.0906071409     1.4439138840
H     -0.4583065041    -3.2816715925     0.7891256898
C     -2.3600177671    -0.8701210299    -0.9463412772
H     -2.3198794770    -3.0136249484    -0.6923557116
C     -0.6610331490    -2.4598243781    -1.9266232101
C     -3.4881797239    -0.5320437621     0.0591216359
H     -2.8150662247    -0.9124367994    -1.9578397803
H     -1.6354332088    -0.0335133939    -0.9807806619
C     -4.1462813135     0.8295759177    -0.2847628100
H     -3.0499940637    -0.4592892563     1.0737552955
C     -4.5723033868    -1.6275506923     0.0923645977
C     -3.2858923522     2.1005066070    -0.0889198338
H     -5.0648259845     0.9451272973     0.3277192348
H     -4.4892788642     0.7872039621    -1.3395641920
C      3.0875546150     2.7746461773     0.8567356680
H      5.1714278758     2.5164078763     0.3103238160
H      4.5343015379     1.2337882836     1.3385205770
H      2.1915893045     2.1801768507     1.1051202674
H      2.8121784315     3.4641393640     0.0401241572
H      3.3285417377     3.3907036091     1.7404194476
C     -3.9936798204     3.3184202924    -0.7142348858
H     -2.3237621925     1.9630510044    -0.6209105652
C     -2.9796067758     2.3668628422     1.3964463130
H     -3.3864928474     4.2349958085    -0.6064106092
H     -4.9669422666     3.5018268081    -0.2211233728
H     -4.1863134440     3.1632140279    -1.7905690255
H      5.0185352504     0.4074464292    -0.8974532539
C      3.9262854837     1.8414931421    -2.0586354011
H      4.7667934323     2.5492332115    -2.1769702951
H      2.9917234254     2.4300343518    -2.0423272014
H      3.8963138722     1.1994635569    -2.9568050259
H      3.0169316556    -0.4585399690     1.4558221929
C      4.2276451584    -1.9102828166     0.4225086066
H      5.1580978308    -1.3205275277     0.4785707572
H      4.2467638275    -2.4764116217    -0.5280386196
H      4.2467948732    -2.6426629526     1.2490891523
H      0.4784949506    -1.5402780378     3.0232864679
H     -0.6261132925    -0.2295508988     2.5325714537
H      1.1357488182     0.0255891380     2.4790080892
H     -0.1125695039    -3.4117598381    -1.8133328108
H      0.0862126934    -1.6570071472    -2.0586247134
H     -1.2514356599    -2.5180646506    -2.8584330707
H     -5.3786063849    -1.3615823672     0.7986045965
H     -4.1676811604    -2.6056794807     0.4028131557
H     -5.0296847018    -1.7567913113    -0.9068560651
H     -3.9170756060     2.5225506327     1.9627942981
H     -2.3583731311     3.2720992673     1.5184941468
H     -2.4393144032     1.5283600518     1.8683504836
