62
pp config_89510 from config_89510.mcos (coord_rad bohr -> angstrom)
C      3.1011576075     2.5765434040    -1.0583557045
C      3.2821015903     1.5062684635     0.0460847733
C      3.7991814416     0.1883561262    -0.5853504944
C      3.7728134061    -1.0767612617     0.3226826557
H      4.8389286169     0.3717995036    -0.9256326718
H      3.2167289292    -0.0211743367    -1.5044364594
C      2.5464205797    -1.9837024613     0.0523743145
C      1.1408588043    -1.4073077082     0.3528369834
H      2.6625112565    -2.9195873760     0.6388778396
H      2.5841341013    -2.2856335107    -1.0142618019
C      0.0697184737    -2.3823867243    -0.1970854409
H      1.0426269087    -0.4428464093    -0.1825157378
C      0.9470836734    -1.1521612435     1.8592454194
C     -1.4093005825    -1.9198660910    -0.1510563466
H      0.1557644360    -3.3343987790     0.3673988138
H      0.3207962868    -2.6310487808    -1.2490664124
C     -1.6539990099    -0.7249241691    -1.1036852638
H     -1.6389795858    -1.6042260040     0.8847858539
C     -2.3255328971    -3.1113771027    -0.4936288104
C     -3.0525741195    -0.0560339575    -1.0517691248
H     -1.4700731149    -1.0789932527    -2.1392476947
H     -0.8967756591     0.0623810019    -0.9153420989
C     -3.2865694795     0.6562428054     0.3021296325
H     -3.8185522716    -0.8460651995    -1.1721012291
C     -3.1940238746     0.9201235791    -2.2367227389
C     -4.6983773338     1.2435906008     0.5455248742
H     -2.5408738899     1.4734984596     0.3896845303
H     -3.0686561249    -0.0452649843     1.1324278032
C      2.4291582148     3.8783104835    -0.5913487006
H      2.4996143733     2.1352440293    -1.8766237584
H      4.0933143056     2.8047300853    -1.4978834949
H      2.2732599250     4.5699221828    -1.4376275266
H      3.0347099503     4.4114521535     0.1610526357
H      1.4408507402     3.6744330720    -0.1411627429
C     -5.7846201104     0.1529768041     0.5921794290
H     -4.9399153538     1.9344488654    -0.2861405411
C     -4.7074559183     2.0640670524     1.8499062032
H     -5.5790326177    -0.5654577585     1.4079748652
H     -5.8437271960    -0.4182705254    -0.3501591388
H     -6.7809185152     0.5934958140     0.7761389233
H      2.2844650927     1.3169861199     0.4915363994
C      4.2245617013     1.9982249018     1.1608397824
H      5.2210972478     2.2371870346     0.7436742050
H      4.3647346176     1.2355100600     1.9465243939
H      3.8390709506     2.9062505809     1.6551366488
H      3.7408497723    -0.7514760719     1.3806328854
C      5.0606845370    -1.9060533722     0.1385363791
H      5.9584238403    -1.3033868211     0.3608484991
H      5.1513828819    -2.2666211293    -0.9034622994
H      5.0696010938    -2.7907214086     0.8000921027
H     -0.0384841491    -0.7068845567     2.0793507943
H      1.7109716811    -0.4643726185     2.2596466473
H      1.0206002061    -2.1010248392     2.4236550190
H     -2.1375642773    -3.9620392375     0.1852559649
H     -2.1431349526    -3.4597282096    -1.5279474082
H     -3.3948584114    -2.8521210291    -0.4130711219
H     -2.4571995394     1.7414036388    -2.1561469688
H     -4.1978475961     1.3757556716    -2.2842112832
H     -3.0174927299     0.4037134750    -3.1969291665
H     -4.4747649580     1.4208798822     2.7194553800
H     -5.6961173458     2.5233746912     2.0285973821
H     -3.9571891497     2.8740957416     1.8211950406
