44
pvdf conformer_027_frame95 from conformer_027_frame95.cosmo (coord_rad bohr -> angstrom)
C      7.0026903453     1.0686099896    -0.5239496881
F      7.2868428989     2.1932178339     0.2324336168
F      7.3783964371     1.3698812717    -1.8267008066
C      5.5115823546     0.7537678209    -0.5161137156
C      4.9805587813     0.2216470591     0.8144506681
F      5.7690855513    -0.8534277650     1.2214871190
F      5.1550106428     1.1892452058     1.8057278795
C      3.4957578096    -0.1667061249     0.8795169408
C      2.9839652739    -1.2471571571    -0.0782755823
F      3.1191110794    -0.8191384401    -1.3969179367
F      3.7892214967    -2.3811432479     0.0177641647
C      1.5462277859    -1.7416412128     0.1533411590
C      0.3914044403    -0.7432328280    -0.0153754773
F      0.5797650998     0.3423338937     0.8398113328
F      0.4035702195    -0.2110353686    -1.2948044811
C     -0.9656868933    -1.4006704855     0.2854120127
C     -2.2351561032    -0.6010551608    -0.0491035451
F     -2.3592952641    -0.4739596737    -1.4260875028
F     -2.1262362321     0.7026264301     0.4316522894
C     -3.4895520409    -1.2619285015     0.5396503902
C     -4.8678390704    -0.7177468361     0.1230106431
F     -5.7948650671    -1.4968506118     0.8190189742
F     -5.0866500838    -1.0080255415    -1.2172466500
C     -5.1228391932     0.7661357554     0.4012055513
C     -6.4967347750     1.3578039166     0.0543524161
F     -6.7673613245     1.1785738735    -1.3049148309
F     -7.5077033620     0.6592840253     0.7194586955
C     -6.6274787568     2.8314687783     0.3842963305
H      7.6468963469     0.2498927839    -0.1672559096
H      5.3342094978    -0.0098808771    -1.2884158931
H      4.9500896119     1.6595999744    -0.7973334040
H      3.3062534666    -0.5032713848     1.9116641074
H      2.9029968755     0.7452557644     0.7147887096
H      1.4953885066    -2.1572943615     1.1722690441
H      1.3851830046    -2.5698947930    -0.5553869709
H     -0.9784484962    -1.6452701313     1.3601909365
H     -1.0241767963    -2.3488930716    -0.2712302247
H     -3.4850447788    -2.3299750090     0.2645170592
H     -3.4179372528    -1.1964933382     1.6364796554
H     -4.3660872273     1.3492361839    -0.1462529516
H     -4.9472675746     0.9389615597     1.4759492755
H     -6.4774335433     2.9934492914     1.4622568954
H     -7.6362230491     3.1718692523     0.1031349993
H     -5.8798271689     3.4127011097    -0.1760207235
