44
pvdf conformer_015_frame43 from conformer_015_frame43.cosmo (coord_rad bohr -> angstrom)
C      5.9270008477     1.8946985848     0.2903101647
F      5.7245359589     3.1440471571    -0.2798353361
F      7.2859060250     1.6454241252     0.2133180816
C      5.1302784496     0.8697462798    -0.5099033561
C      5.1189233279    -0.5406681686     0.0853831192
F      6.4155924426    -1.0480671768     0.0572685860
F      4.7819242300    -0.4675656249     1.4363698952
C      4.2325550545    -1.5759493496    -0.6319399487
C      2.7473215347    -1.6859957862    -0.2459068027
F      2.2148925995    -2.6464410061    -1.1036579931
F      2.6578234700    -2.2403015678     1.0245391507
C      1.9130330839    -0.4022050918    -0.3104206900
C      0.3885839112    -0.5208187272    -0.1283951401
F     -0.1520472456    -1.2517458658    -1.1845220686
F      0.0886033441    -1.2433985078     1.0140003604
C     -0.2694272430     0.8656758791    -0.0703039925
C     -1.7873482941     0.9497242292     0.1628372833
F     -2.0762237443     2.3113311958     0.2412126140
F     -2.0874814743     0.4441034688     1.4251697332
C     -2.6774649342     0.2918297992    -0.8949049544
C     -4.2024047048     0.4474385205    -0.7677194499
F     -4.7323782582    -0.1833270378    -1.8951412100
F     -4.5480769287     1.7884963522    -0.9123434880
C     -4.8461148089    -0.1243526352     0.4977632786
C     -6.3797564074    -0.1946464165     0.5506922783
F     -6.8282850264    -1.1805843851    -0.3320302554
F     -6.6843826657    -0.7006983119     1.8255919351
C     -7.1836356731     1.0670029365     0.3317226868
H      5.6544058946     1.9598112161     1.3553175658
H      5.5321543313     0.8189631733    -1.5345119444
H      4.0977211860     1.2457404733    -0.5710879321
H      4.2963496022    -1.4020326482    -1.7168904608
H      4.6652820259    -2.5674770719    -0.4263110000
H      2.0840506096     0.0749375996    -1.2894773482
H      2.2865699138     0.2769556841     0.4723668055
H     -0.0451945591     1.3883265583    -1.0135710993
H      0.1999604110     1.4337302623     0.7490203560
H     -2.4001212715     0.7064055794    -1.8779967919
H     -2.4527171866    -0.7846262112    -0.9137744084
H     -4.5081285752     0.4833543093     1.3508614393
H     -4.4682753763    -1.1482608734     0.6498361275
H     -6.8750223364     1.8415887195     1.0497335303
H     -8.2498133922     0.8361154748     0.4798067484
H     -7.0301106808     1.4461320940    -0.6880684916
