44
pvdf conformer_018_frame58 from conformer_018_frame58.cosmo (coord_rad bohr -> angstrom)
C     -7.2968887364    -0.8715728084     0.2306888809
F     -7.4008766870    -1.4374410379    -1.0284658937
F     -8.5752200560    -0.4602017601     0.5820951789
C     -6.3869656378     0.3511586692     0.2129935004
C     -4.9006427757     0.0385786621     0.0148674672
F     -4.5143096840    -0.9139430243     0.9649680436
F     -4.7015807061    -0.5726160295    -1.2136051649
C     -4.0206624595     1.2881763864     0.1376550441
C     -2.5065034032     1.1440984490    -0.0840459242
F     -2.2653259491     0.7634614725    -1.4018720877
F     -1.9878319900     2.4338505877     0.0195956675
C     -1.7653823984     0.2084336158     0.8754848960
C     -0.2295151086     0.1697044495     0.8157651890
F      0.2827503782     1.3946622481     1.2384431448
F      0.1590284667    -0.7394956613     1.7987223558
C      0.3904735621    -0.2206919568    -0.5288158662
C      1.9081484578    -0.4611270510    -0.5922182915
F      2.1724241165    -0.8173160990    -1.9143191154
F      2.2301373107    -1.5920221013     0.1548832993
C      2.8021064084     0.7117520432    -0.1811120370
C      4.3219186117     0.5768701276    -0.3754770213
F      4.8560192605     1.8020397677     0.0288254800
F      4.6104489006     0.4919363503    -1.7349842763
C      5.0100399741    -0.5633070949     0.3783866445
C      6.5456111897    -0.5997069166     0.3768748319
F      7.0352197413     0.4576322029     1.1475532733
F      6.8897014193    -1.7522422887     1.1034644875
C      7.2801590547    -0.6308068507    -0.9443436058
H     -6.9907123354    -1.6627035832     0.9330103580
H     -6.5034935988     0.8606249644     1.1834596180
H     -6.7221659790     1.0377768164    -0.5806712612
H     -4.3751328920     2.0265908779    -0.6001903242
H     -4.1732499464     1.7150897103     1.1410532533
H     -2.1323814555    -0.8147470023     0.7088990106
H     -2.0300385931     0.4925144600     1.9069155746
H      0.1457952059     0.5646614846    -1.2589233578
H     -0.0866010528    -1.1534519596    -0.8715666918
H      2.4902287826     1.5983589031    -0.7568877505
H      2.6192290940     0.9258688213     0.8821932602
H      4.6521003024    -1.5128971861    -0.0476650524
H      4.6864552454    -0.5290930391     1.4312385930
H      7.0982365881     0.2960342520    -1.5057311438
H      6.9368790993    -1.4853244263    -1.5467843220
H      8.3582104073    -0.7334030861    -0.7463115443
