44
pvdf conformer_011_frame28 from conformer_011_frame28.cosmo (coord_rad bohr -> angstrom)
C      6.6676186216     1.9283121623    -0.0150808502
F      6.9734367677     3.0824774919    -0.7242151516
F      7.7574299299     1.0855492995    -0.1524497064
C      5.4110737689     1.3126594459    -0.6184863546
C      4.8469339156     0.1176327399     0.1585270532
F      5.7620334416    -0.9258370905     0.1422647346
F      4.7209480140     0.4780144703     1.5007253715
C      3.4901442067    -0.3404764523    -0.3940316970
C      2.8340612998    -1.5772942652     0.2313299760
F      3.6629179483    -2.6857692287     0.0477390236
F      2.7215562305    -1.4289581760     1.6054571511
C      1.4733486687    -1.9916847650    -0.3574305646
C      0.2783181073    -1.0416955059    -0.1918425127
F      0.0502132456    -0.8011697367     1.1595965874
F      0.5709929401     0.2038843407    -0.7406513156
C     -0.9868981472    -1.6152285744    -0.8453490406
C     -2.2692819577    -0.7654423124    -0.8372931134
F     -3.2070402633    -1.5186683496    -1.5563846476
F     -2.0746860424     0.3805989217    -1.5915724574
C     -2.8451690653    -0.4140050250     0.5369893626
C     -4.1259826596     0.4358584568     0.6012238139
F     -3.8688055583     1.7002707053     0.0899114575
F     -4.3562243295     0.6390573295     1.9683774072
C     -5.3835564533    -0.1564221814    -0.0388550602
C     -6.6713755495     0.6796567281     0.0048115503
F     -6.5262145580     1.7910436585    -0.8294641238
F     -7.6460060716    -0.1108666055    -0.6281292370
C     -7.2203026286     1.1322674852     1.3392304590
H      6.5809014464     2.1980146816     1.0490074086
H      5.6233808118     1.0052348372    -1.6551645398
H      4.6417582858     2.1015634962    -0.6422575950
H      2.7919702265     0.5044997055    -0.2962662989
H      3.6136387027    -0.5409305314    -1.4708748029
H      1.2099824505    -2.9517481036     0.1162244734
H      1.6148697347    -2.1769905567    -1.4338708147
H     -1.2147982107    -2.5752503620    -0.3560385176
H     -0.7626587039    -1.8224239493    -1.9046995754
H     -3.0348810806    -1.3572245462     1.0734377923
H     -2.0800851276     0.1402047001     1.1021724957
H     -5.5887935283    -1.1171506852     0.4602004330
H     -5.1729597567    -0.3694858519    -1.0976294025
H     -8.1853965142     1.6343723205     1.1702330709
H     -6.5243908334     1.8310373385     1.8231778845
H     -7.3710959201     0.2648066136     1.9990440151
