44
pvdf conformer_016_frame44 from conformer_016_frame44.cosmo (coord_rad bohr -> angstrom)
C      5.8405759120     2.0354181848    -0.1845191765
F      6.0286535492     2.3521995247     1.1489314222
F      5.3735121553     3.1879352590    -0.8001739705
C      4.7861350963     0.9445779369    -0.3495164144
C      5.2265210322    -0.4415785031     0.1188873027
F      6.4591067169    -0.7395251362    -0.4752534068
F      5.4806707834    -0.4197196560     1.4834712564
C      4.3149466036    -1.6354035454    -0.2012158338
C      2.8411719565    -1.5779061783     0.2462901453
F      2.4402638319    -2.8985630887     0.4411569319
F      2.7430520007    -0.9740170894     1.4916078095
C      1.8833520930    -0.9238014214    -0.7613224837
C      0.4477962531    -0.6334382152    -0.2926850397
F     -0.0859798781    -1.7503553779     0.3448467281
F      0.4644800333     0.3680578710     0.6678517110
C     -0.4530631878    -0.2250390268    -1.4669798259
C     -1.9031784312     0.1912972041    -1.1683829812
F     -2.4439918502     0.5644834860    -2.3980392841
F     -1.9033412364     1.3567168597    -0.4061593508
C     -2.7918661792    -0.8678567416    -0.5103440897
C     -4.2883657527    -0.5598866597    -0.3342092874
F     -4.8375063446    -1.7094426299     0.2369160463
F     -4.8919727150    -0.4589976417    -1.5851499135
C     -4.6406146461     0.6624485396     0.5164397739
C     -6.1141087471     0.8671672398     0.8991702141
F     -6.4909347168    -0.1097204155     1.8242941624
F     -6.1452856523     2.0692793782     1.6259290247
C     -7.1563968050     0.9416683663    -0.1935050013
H      6.8231760502     1.7929647015    -0.6181644225
H      4.5505696196     0.8855825852    -1.4245271807
H      3.8800402670     1.2515364960     0.1978168124
H      4.3523597574    -1.8174028280    -1.2868760008
H      4.7707836569    -2.5045904888     0.2984701051
H      1.8425212712    -1.5913763601    -1.6367917023
H      2.3055200356     0.0321594627    -1.1051718392
H     -0.4865581348    -1.0666153279    -2.1758294915
H      0.0151005552     0.6310604808    -1.9807927268
H     -2.7302121033    -1.7885790221    -1.1131510924
H     -2.3783041229    -1.0941369752     0.4832961926
H     -4.3071695661     1.5587029338    -0.0284441875
H     -4.0655644492     0.6115058499     1.4550637266
H     -8.1326078174     1.1631035117     0.2646805052
H     -7.2143471459    -0.0136902839    -0.7331668694
H     -6.8992791545     1.7387900956    -0.9071181417
