44
pvdf conformer_024_frame84 from conformer_024_frame84.cosmo (coord_rad bohr -> angstrom)
C      7.7847422399    -0.4804528466    -0.2858559760
F      7.9777732369    -1.2764091094     0.8306354063
F      8.9096717370     0.3266563069    -0.3911744177
C      6.5637493077     0.4159646045    -0.1208728267
C      5.2210274427    -0.3224752999    -0.1441151288
F      5.1931647307    -1.1631447432    -1.2578472575
F      5.1273292920    -1.1639603965     0.9554923730
C      4.0274046195     0.6421734744    -0.1905409224
C      2.6212782663     0.0506162803    -0.0004368246
F      2.4583708006    -1.0717687012    -0.8023084333
F      2.4773712918    -0.3994482706     1.3056774880
C      1.5314581753     1.0835369669    -0.3325213885
C      0.0850904735     0.7412897661     0.0585861427
F     -0.2277654093    -0.5586926368    -0.3351671424
F     -0.0416133474     0.7460347907     1.4410088324
C     -0.9158320331     1.7221550079    -0.5688559101
C     -2.3873860223     1.6447564720    -0.1263883243
F     -3.0465600995     2.6316417409    -0.8605935380
F     -2.4887848413     2.0491047195     1.1977093370
C     -3.0816326605     0.2927305407    -0.3267869668
C     -4.5894379402     0.2006115622    -0.0406981943
F     -5.2921206016     1.0396765638    -0.8958634904
F     -4.8633021515     0.6688749089     1.2423155315
C     -5.0969203502    -1.2413041369    -0.1793003257
C     -6.6101048644    -1.4822724324    -0.0716936863
F     -7.2415930352    -0.9527299581    -1.1997044597
F     -6.7759299975    -2.8718690891    -0.1953859737
C     -7.3434605752    -1.0213860743     1.1676035959
H      7.7562132535    -1.1380916812    -1.1685794411
H      6.5744810671     1.1383918107    -0.9535823483
H      6.6533509910     0.9759796415     0.8236326664
H      4.1689510347     1.4059135752     0.5910117452
H      4.0632278887     1.1553540767    -1.1655261124
H      1.5700265020     1.2593363930    -1.4195238401
H      1.7835378158     2.0327896670     0.1665039351
H     -0.8841156513     1.5818176643    -1.6603576517
H     -0.5824623520     2.7504562510    -0.3507060140
H     -2.9241809405    -0.0170793700    -1.3720408552
H     -2.5694603339    -0.4440513877     0.3114916511
H     -4.6048609551    -1.8422746205     0.6019591131
H     -4.7769298350    -1.6338220616    -1.1585072102
H     -8.3943845952    -1.3410335807     1.0944962615
H     -7.2995602866     0.0730455162     1.2538590793
H     -6.8877945304    -1.4680903346     2.0639811366
