44
pvdf conformer_002_frame2 from conformer_002_frame2.cosmo (coord_rad bohr -> angstrom)
C      6.0043069886     2.3052379151    -0.2088314431
F      5.4518785077     3.2495198256     0.6395206868
F      6.5781867950     3.0100395753    -1.2586513490
C      4.9363178044     1.3793012734    -0.7783792376
C      4.3327940329     0.4008202121     0.2354929023
F      5.3702047642    -0.2708645993     0.8803166337
F      3.6752102406     1.1079278445     1.2342437335
C      3.3692393236    -0.5954135295    -0.4246829021
C      2.7799085117    -1.7128415267     0.4432104175
F      3.8050489367    -2.5357436560     0.9032143127
F      2.1939178623    -1.1855338807     1.5917076682
C      1.7837630075    -2.6510168310    -0.2552994860
C      0.4400865187    -2.1022592954    -0.7588725329
F      0.6685127138    -1.1023392571    -1.7008071813
F     -0.1437467245    -3.1471333766    -1.4716036573
C     -0.5324317166    -1.6171421639     0.3228480808
C     -1.8420356829    -0.9566778351    -0.1359611384
F     -2.4741217055    -1.7290733096    -1.0976020061
F     -1.5504526959     0.2535736927    -0.7665420196
C     -2.7864738093    -0.7069732447     1.0486983192
C     -4.1820941022    -0.1245810928     0.7673805629
F     -4.8100314736    -0.0636374093     2.0184387715
F     -4.9267549682    -1.0414565916     0.0383469951
C     -4.2353252116     1.2554327615     0.1085428707
C     -5.6182928754     1.8336189546    -0.2267540420
F     -5.3662101033     3.1030257706    -0.7739146602
F     -6.1771860259     1.1036156976    -1.2790862733
C     -6.6475073370     1.9837607974     0.8709252119
H      6.8123665304     1.7929254597     0.3361736981
H      5.4096559874     0.7910984743    -1.5809550956
H      4.1322173157     1.9885531472    -1.2223203676
H      2.5413156546    -0.0134107508    -0.8576670508
H      3.8975761176    -1.0808878895    -1.2612050851
H      1.5723836755    -3.4688225850     0.4527021710
H      2.2897259817    -3.0939320285    -1.1283740821
H     -0.0094447817    -0.8960121883     0.9694480560
H     -0.7830295229    -2.4917320339     0.9439449145
H     -2.9541439392    -1.6677747412     1.5621113166
H     -2.2738459249    -0.0346298201     1.7554538687
H     -3.6633540811     1.2207843720    -0.8309891706
H     -3.7274343939     1.9644763497     0.7819607723
H     -7.5345421631     2.4860752252     0.4550821895
H     -6.2374841784     2.5894178527     1.6928942377
H     -6.9356001029     0.9989898499     1.2635992367
