44
pvdf conformer_025_frame91 from conformer_025_frame91.cosmo (coord_rad bohr -> angstrom)
C      6.4768279143     2.1140708936     0.0571324194
F      6.6727422185     3.3519807297    -0.5408738454
F      7.5922836632     1.3527384251    -0.2475644366
C      5.2092281816     1.4962644855    -0.5205842320
C      4.7609769186     0.1993835067     0.1632134016
F      5.7278618953    -0.7807032645    -0.0147657829
F      4.7043107793     0.4172972384     1.5398287206
C      3.3993336282    -0.2839595556    -0.3556586185
C      2.8132651767    -1.5713555142     0.2361436949
F      3.7123126910    -2.6233457343     0.0551156269
F      2.6651185773    -1.4494017166     1.6099436551
C      1.4920720716    -2.0614580888    -0.3825062451
C      0.2410177170    -1.1827373226    -0.2412811352
F     -0.0304671980    -0.9573710794     1.1044807042
F      0.4734787601     0.0780171650    -0.7835669942
C     -0.9731135335    -1.8283840356    -0.9235175265
C     -2.3161683968    -1.0798126758    -0.8911412794
F     -3.1922650538    -1.8555944113    -1.6493447752
F     -2.1966875690     0.1179118505    -1.5916255637
C     -2.9187712717    -0.8163864494     0.4918055635
C     -4.3598666100    -0.2839854095     0.5660648041
F     -4.6304433244    -0.1357441155     1.9274366882
F     -5.2392703120    -1.2736641682     0.1330643062
C     -4.6460236629     1.0273386467    -0.1683848367
C     -6.0147815496     1.6888147748     0.0531511706
F     -6.0813060643     2.1886069367     1.3560623944
F     -6.0095227674     2.8331584002    -0.7621632951
C     -7.2712311590     0.8998951463    -0.2385593676
H      6.4579166718     2.2645638809     1.1477624694
H      5.3594915844     1.3088350034    -1.5963308427
H      4.4035012447     2.2394559506    -0.4068554924
H      2.6727882761     0.5259634374    -0.1901090969
H      3.4887025706    -0.4256673569    -1.4450102276
H      1.2744476852    -3.0362983050     0.0841564225
H      1.6669012287    -2.2349474778    -1.4559772953
H     -1.1310447808    -2.8181507983    -0.4684542603
H     -0.7274245265    -1.9803553606    -1.9874314090
H     -2.9048255844    -1.7593533775     1.0620660729
H     -2.2690566396    -0.1007186954     1.0162931099
H     -4.5355098236     0.8391448754    -1.2472523256
H     -3.8788463170     1.7638081463     0.1204175984
H     -7.3498482679     0.0399602144     0.4407908386
H     -7.2552878418     0.5338928407    -1.2761309381
H     -8.1418146914     1.5587603064    -0.0974481242
