44
pvdf conformer_017_frame53 from conformer_017_frame53.cosmo (coord_rad bohr -> angstrom)
C     -7.3550718643    -0.8548216250    -0.2627873758
F     -8.6243279734    -0.3751462008    -0.5553684201
F     -7.4649231549    -1.5502817026     0.9291560114
C     -6.4133654370     0.3356869627    -0.1227438330
C     -4.9357580815    -0.0337733717     0.0378373445
F     -4.7480767294    -0.7540843885     1.2076894370
F     -4.5808043634    -0.9107316912    -0.9941292267
C     -4.0195438184     1.1951008748     0.0154304037
C     -2.5176014766     0.9918895064     0.2731717234
F     -1.9577798216     2.2751984780     0.2186894285
F     -2.3218127822     0.5707267384     1.5788363842
C     -1.7790711795     0.0729145857    -0.7039680478
C     -0.2692051349    -0.1416215487    -0.5072187514
F     -0.0502398139    -0.7894190596     0.7067062698
F      0.1050463945    -1.0658088930    -1.4817736807
C      0.6197312104     1.1018125536    -0.6047147230
C      2.1456632120     0.9109598571    -0.6009873478
F      2.6807852202     2.1920588314    -0.7332779048
F      2.5330370448     0.2400119492    -1.7587728408
C      2.7432784735     0.2233871752     0.6294752349
C      4.2742643518     0.1458221399     0.7528400746
F      4.5148430641    -0.4883705408     1.9732571408
F      4.7929056506     1.4288778626     0.9084831605
C      5.0164481492    -0.5852464263    -0.3683884214
C      6.5099984541    -0.8802033358    -0.1645740491
F      6.6579177882    -1.8617397990     0.8187378366
F      6.9298043010    -1.5059228951    -1.3506528034
C      7.4530625112     0.2636335743     0.1322871746
H     -7.0750724128    -1.5733732603    -1.0490051697
H     -6.7300409534     0.9456022497     0.7381899804
H     -6.5179630910     0.9450925418    -1.0351499737
H     -4.1326317641     1.6842900361    -0.9650534234
H     -4.3734752035     1.9002119388     0.7854809426
H     -1.9352440187     0.4643941297    -1.7211331355
H     -2.2407954547    -0.9254606571    -0.6579817233
H      0.3643908354     1.7723277385     0.2284032424
H      0.3739277683     1.6272663493    -1.5417752198
H      2.3830988262     0.7526800612     1.5268496979
H      2.3530422946    -0.8039576188     0.6722146138
H      4.9151752706     0.0149305924    -1.2853686876
H      4.5157727405    -1.5504482869    -0.5472505254
H      7.2005185453     0.7278549204     1.0956310552
H      7.3838108851     1.0250517765    -0.6591536566
H      8.4811360910    -0.1280262460     0.1729184144
