44
pvdf conformer_006_frame15 from conformer_006_frame15.cosmo (coord_rad bohr -> angstrom)
C      6.6405332432    -1.6795630058     0.1173272355
F      7.6452230462    -0.8022712301    -0.2548168342
F      6.7960692895    -2.8103319446    -0.6737744418
C      5.2624740073    -1.0896095902    -0.1573037229
C      4.8688297896     0.0637699572     0.7656230342
F      5.0563918955    -0.3477420494     2.0924450663
F      5.7401833726     1.1310844332     0.5966186100
C      3.4185312861     0.5642535619     0.6900061118
C      2.9029103722     1.0580261152    -0.6647998413
F      3.7910894216     1.9935165017    -1.1940177202
F      2.8969991078     0.0084580567    -1.5797139789
C      1.5292635216     1.7492015923    -0.6676264062
C      0.3035325432     0.9427623083    -0.2169294819
F      0.1799985847    -0.2070106294    -0.9911793966
F      0.4829826376     0.4884025460     1.0862447751
C     -0.9809940640     1.7771955281    -0.3102772029
C     -2.2940815840     1.1590219523     0.1995118823
F     -3.2604973830     2.1570105239     0.0201634789
F     -2.2192572191     0.9743055154     1.5709431191
C     -2.7544647053    -0.1276873616    -0.4909007864
C     -4.0938766552    -0.7492436323    -0.0593959853
F     -4.0109022025    -1.1441084887     1.2733297815
F     -4.1977545156    -1.9391814094    -0.7822236294
C     -5.3497121698     0.0988588834    -0.2758724294
C     -6.7131748621    -0.5791657124    -0.0736998526
F     -7.6654489666     0.4317950724    -0.2874447653
F     -6.9352005328    -1.4912609694    -1.1086546922
C     -7.0146395673    -1.2486249571     1.2479474670
H      6.8180958573    -1.9723391220     1.1639774597
H      4.5259756324    -1.8986373640    -0.0259026711
H      5.2181072489    -0.7558231786    -1.2053009820
H      2.7621780546    -0.2509849312     1.0291302298
H      3.3308900964     1.3876993128     1.4172528479
H      1.3546583584     2.0896733440    -1.7017173870
H      1.6029161581     2.6406983834    -0.0264683710
H     -1.1250258790     2.0548567488    -1.3661839397
H     -0.8335993492     2.7053131546     0.2661205679
H     -2.8074765903     0.0668979011    -1.5733990675
H     -1.9863921523    -0.8996996264    -0.3289276001
H     -5.3313996293     0.4921664875    -1.3049890299
H     -5.2973912023     0.9585268706     0.4088223817
H     -6.3367545532    -2.0980512641     1.4098276423
H     -8.0549953213    -1.6084199063     1.2320916391
H     -6.8894624875    -0.5310440008     2.0727317973
