44
pvdf conformer_003_frame4 from conformer_003_frame4.cosmo (coord_rad bohr -> angstrom)
C     -5.6813399822    -2.5561907132    -0.5072915424
F     -6.1405617655    -3.1568882185    -1.6718696200
F     -6.7978729935    -2.3189790682     0.2762948822
C     -4.9811802261    -1.2553576053    -0.8811826289
C     -4.2788421656    -0.5491984372     0.2840114377
F     -5.2158405834    -0.1453261027     1.2247234411
F     -3.4686139799    -1.4752024367     0.9424442396
C     -3.4347711686     0.6426881874    -0.1879313900
C     -2.7720564701     1.5223299866     0.8778708947
F     -3.7537499542     2.1579120584     1.6343856934
F     -2.0631350099     0.7399799587     1.7869434751
C     -1.8661260024     2.6470647206     0.3546836929
C     -0.5912211200     2.3014519530    -0.4292977318
F     -0.9343443756     1.6219058330    -1.5961571063
F     -0.0763156772     3.5224344749    -0.8583212733
C      0.4845383364     1.5336359984     0.3470425130
C      1.7223104572     1.0524496224    -0.4269609812
F      2.2560726302     2.0890200215    -1.1816717685
F      1.3483991564     0.0780424036    -1.3439403633
C      2.7950144515     0.5027577146     0.5279875905
C      3.9872423040    -0.2455087322    -0.0896738007
F      4.5163342032     0.4820474712    -1.1530530122
F      3.5516697961    -1.4428557777    -0.6449269582
C      5.0869878260    -0.5120652258     0.9465345678
C      6.2439608013    -1.4351224321     0.5357239297
F      7.1228373576    -1.4440063559     1.6314943477
F      5.7762092959    -2.7488946781     0.4519561458
C      7.0347818662    -1.1113348578    -0.7114369970
H     -5.0460047734    -3.2840268785     0.0210986906
H     -5.7148449564    -0.5693104067    -1.3341970879
H     -4.2215173487    -1.5009284628    -1.6413043612
H     -2.6526981944     0.2475096427    -0.8538188890
H     -4.0783860669     1.2991090089    -0.7963816422
H     -1.5720277907     3.2468511679     1.2313296778
H     -2.4726446029     3.2937328792    -0.2999493921
H      0.0215187253     0.6475901816     0.8059978688
H      0.8166788028     2.1900252633     1.1683445223
H      3.1805721158     1.3553824244     1.1100028452
H      2.3119753792    -0.1893701683     1.2359838826
H      4.6262280999    -0.9522520053     1.8463581672
H      5.5175247983     0.4616118515     1.2287243880
H      7.8565676863    -1.8375996400    -0.8067889293
H      7.4515793581    -0.0955077343    -0.6415203999
H      6.3898924209    -1.1711244506    -1.5990757748
