44
pvdf conformer_005_frame10 from conformer_005_frame10.cosmo (coord_rad bohr -> angstrom)
C     -5.7729772621     2.4445842972     0.2583906482
F     -5.2341463703     3.3131944292    -0.6752930213
F     -6.2427257533     3.2324058943     1.3008792162
C     -4.7140195147     1.4981285469     0.8110732815
C     -4.2225555133     0.4390806158    -0.1820329002
F     -5.3280635122    -0.2140510909    -0.7245445915
F     -3.5976641975     1.0601192697    -1.2563090402
C     -3.2644524916    -0.5677540706     0.4699031077
C     -2.7988842594    -1.7643396236    -0.3675074295
F     -3.8910226380    -2.5770043808    -0.6612447215
F     -2.3149177920    -1.3435502489    -1.6032993066
C     -1.7653860901    -2.6880003746     0.2962417621
C     -0.3559499624    -2.1566367486     0.5974601132
F     -0.4468422844    -1.0821355414     1.4882333968
F      0.2831826570    -3.1628888733     1.3127482612
C      0.4897687866    -1.7628796288    -0.6163146143
C      1.9500155282    -1.3353903232    -0.3887347641
F      2.4706370503    -1.1284804480    -1.6731609345
F      2.6764853466    -2.3972828164     0.1256614008
C      2.1650781354    -0.0782205731     0.4589595081
C      3.5997040397     0.4475159084     0.6371184818
F      4.3636277968    -0.5088983356     1.3007745195
F      3.4942952613     1.5114359146     1.5350559868
C      4.3243953064     0.9101278068    -0.6297517729
C      5.6628565456     1.6442302712    -0.4607084321
F      6.1095103471     1.9066668663    -1.7670487807
F      5.4328031471     2.9079030433     0.0891676980
C      6.7817521127     0.9701573122     0.3006202642
H     -6.6383045954     1.9451781414    -0.2044931207
H     -5.1602339306     0.9776810577     1.6735656227
H     -3.8560014563     2.0900518721     1.1693156938
H     -2.3793659297    -0.0061952004     0.8059916608
H     -3.7528527127    -0.9761844146     1.3696205621
H     -1.6598559509    -3.5664232857    -0.3595757934
H     -2.1827190437    -3.0374968436     1.2546983229
H     -0.0209879901    -0.9461043985    -1.1475907437
H      0.5226290867    -2.6284463562    -1.2979275935
H      1.5615213411     0.7334821189     0.0237844718
H      1.7768389837    -0.2751809093     1.4701618105
H      3.6529351275     1.5821292981    -1.1881727668
H      4.5039892798     0.0244079077    -1.2572771301
H      7.0097469650    -0.0079377356    -0.1491940968
H      6.4939646482     0.8201463828     1.3503131596
H      7.6761924850     1.6103687333     0.2538956751
