44
pvdf conformer_013_frame38 from conformer_013_frame38.cosmo (coord_rad bohr -> angstrom)
C      6.6062234085     1.9482466204    -0.2825751779
F      6.9419498623     2.0952163468     1.0527076799
F      6.7957051607     3.1908638699    -0.8728103156
C      5.1424799822     1.5574577033    -0.4440844288
C      4.8073256660     0.1304366390     0.0023359640
F      5.7022731747    -0.7487772763    -0.6091950864
F      5.0332676884    -0.0026703089     1.3652529557
C      3.3640877558    -0.2589874501    -0.3484778085
C      2.8229414373    -1.5787155380     0.2150600620
F      3.7398056150    -2.6045892736    -0.0152010175
F      2.7086819792    -1.4940006067     1.5961763731
C      1.4944632635    -2.0794415075    -0.3775980996
C      0.2478703116    -1.1979611357    -0.2174733768
F      0.0079285168    -0.9548413815     1.1316262355
F      0.4737902129     0.0550280900    -0.7797788114
C     -0.9853254751    -1.8463898377    -0.8618265764
C     -2.3179492365    -1.0795496738    -0.8257385081
F     -3.2206669730    -1.8645751649    -1.5417047622
F     -2.1948538835     0.0941192378    -1.5654807227
C     -2.8873704596    -0.7675973278     0.5608193999
C     -4.3226623881    -0.2216381080     0.6544443432
F     -4.5491083418    -0.0300623524     2.0235961853
F     -5.2214238688    -1.2109742992     0.2801767383
C     -4.6127019252     1.0787596594    -0.0974306378
C     -6.0344255107     1.6550992346    -0.0175080157
F     -6.0021222003     2.8256454628    -0.7944980323
F     -6.9139188935     0.8082767331    -0.6961982737
C     -6.6208981998     1.9978472867     1.3336952677
H      7.3225060261     1.2454157626    -0.7359750731
H      4.8963528335     1.6488585947    -1.5149334345
H      4.5159783622     2.2693777909     0.1165019681
H      2.6982850641     0.5474661399    -0.0048507666
H      3.2931430444    -0.2943548988    -1.4472530567
H      1.2878517331    -3.0528084695     0.0969652497
H      1.6513542678    -2.2555001825    -1.4531461617
H     -1.1468215342    -2.8219466286    -0.3781285473
H     -0.7604009377    -2.0292749552    -1.9255891940
H     -2.8687479409    -1.6931535904     1.1588794296
H     -2.2175240164    -0.0443447209     1.0490965636
H     -4.3871644667     0.9234264845    -1.1634412119
H     -3.9171543144     1.8452481459     0.2807538111
H     -7.6017881778     2.4738556787     1.1809054198
H     -5.9568985171     2.6945918308     1.8670353115
H     -6.7450956483     1.0898119369     1.9393029361
