158
pc config_4990 from config_4990.mcos (coord_rad bohr -> angstrom)
C     13.7696198140    -3.2400553009    -1.5201778235
C     15.1346319298    -3.2809480185    -1.8270822407
C     15.8038457772    -2.1447894736    -2.3072760382
C     15.0645561405    -0.9563418523    -2.4693311401
C     13.0537345590    -2.0537860765    -1.6715267764
C     13.7061603778    -0.9202142435    -2.1606267273
C     11.1270820284    -2.4277939937    -0.3142674511
O     11.6657248534    -1.9609440848    -1.4753851604
O     11.7083564620    -2.9294292759     0.6170727610
H     13.2723438041    -4.1336398674    -1.1357847870
H     15.5581599811    -0.0478647187    -2.8308704000
C     19.4193443208     1.0579742705    -0.6469008592
C     18.6154520604     0.1534607805     0.0498920060
C     17.9234490720    -0.8515200827    -0.6230087507
C     18.0346355463    -0.9838173991    -2.0213148116
C     18.8551852030    -0.0768043198    -2.7093292333
C     19.5499032476     0.9299109628    -2.0287128720
H     18.5280252330     0.2572526370     1.1360707047
H     18.9683497418    -0.1454397525    -3.7950570639
H     20.1727918445     1.6325771746    -2.5869566540
H     17.2822454445    -1.5351973155    -0.0563369652
C     17.2960282985    -2.1521043105    -2.7174205431
C     17.3638291526    -2.0442501049    -4.2634333549
H     18.4035255327    -2.1269556307    -4.6249564598
H     16.9423998371    -1.0943740170    -4.6296148975
H     16.7843979233    -2.8654580295    -4.7151276851
C     18.0046824778    -3.4703986192    -2.3095172269
H     19.0721974261    -3.4117065110    -2.5761899140
H     17.5722168133    -4.3373781372    -2.8386241150
H     17.9388074204    -3.6556603983    -1.2253954045
O     20.1574027430     1.9779540648     0.1165591039
H     15.6723120073    -4.2230983270    -1.6874358398
H     13.1321362370     0.0034797129    -2.2850265944
H     -0.6240071229     0.8558080161    -0.0778635432
C     -1.6454395666     0.7645316935     0.2989076678
H     -2.2477828433     2.6548980218    -0.5248444393
H     -3.5477689543     4.4321847909    -0.2476959056
C     -2.5714923523     1.7851462076     0.0536214825
O     -1.1724816350    -1.4603514685     1.2477810441
C     -2.0167955320    -0.3575993642     1.0365423346
C     -4.4390304930     3.9140863314    -0.6421111888
H     -5.2061247297     1.2191470069    -1.8563089919
H     -5.2309208645     4.6671082299    -0.7833867332
H     -7.2857834138     0.3216300893    -2.8853217162
C     -6.1767482187     1.4417566250    -1.4002128568
H     -4.1906376194     3.4980043841    -1.6317253040
C     -7.3378838613     0.9332473909    -1.9789832884
C     -3.8884799252     1.6952961550     0.5305473107
C     -4.9340082810     2.8205123338     0.3402369921
C     -3.3269558559    -0.4618445945     1.5093294210
C     -6.2436410425     2.2273125356    -0.2325433743
C     -4.2546050279     0.5482308312     1.2621376748
C     -8.5881305727     1.1773445573    -1.4067770775
O     -9.7139425352     0.7104159127    -2.1053439525
H     -3.6141215661    -1.3558917815     2.0714747599
C     -7.5067101152     2.4770045201     0.3256962382
C     -8.6705511084     1.9659173670    -0.2603498905
C    -10.7000603787     0.0649825657    -1.4219694271
C     -5.1561106267     3.4965200662     1.7186339770
H     -5.2797798973     0.4385691172     1.6321765996
H     -4.1914665546     3.8556504166     2.1116967405
H     -7.6020220822     3.0824348956     1.2316136304
H     -5.8307083074     4.3660873644     1.6336075721
O    -10.7392033490    -0.1791455406    -0.2406475981
H     -9.6415834064     2.1627137853     0.1997236181
H     -5.5802493745     2.7972167533     2.4569816952
H    -13.3435777892     0.3980316520    -0.3599392841
C    -13.6313205331    -0.4747979119    -0.9509740420
H    -15.4742604040    -0.7581729031     0.1206721889
H    -15.4209587241    -4.3629926161     0.2683135150
C    -14.8257648563    -1.1381226124    -0.6762051655
O    -11.6274462504    -0.2571636445    -2.3669236959
C    -12.7927644565    -0.9349741569    -1.9706617017
C    -16.2894001557    -3.6890428140     0.3430599484
H    -18.4108718319    -2.4919378803     1.0206156546
H    -17.1621766736    -4.2951792479     0.6420874572
H    -20.2923516710    -0.9007312368     0.9850296993
C    -18.5605765515    -1.8731664012     0.1314356167
H    -16.0803180738    -2.9605382397     1.1426633608
C    -19.6367558035    -0.9780828662     0.1146141457
C    -15.2194533269    -2.2694074067    -1.4185889495
C    -16.5270958253    -2.9973759754    -1.0246464597
C    -13.1767182823    -2.0437433791    -2.7193766746
C    -17.6934285561    -1.9814659974    -0.9666565071
C    -14.3765609223    -2.7116968766    -2.4494832823
C    -19.8534669564    -0.1627658975    -0.9943778324
O    -20.9595486515     0.6937861122    -1.1238133604
H    -12.5222299980    -2.3852970672    -3.5275024263
C    -17.9323380834    -1.1605146243    -2.0863778109
C    -19.0031625000    -0.2689765979    -2.0974345985
C    -21.2566058336     1.5542621342    -0.1105013914
C    -16.9089410078    -4.1001617779    -2.0461374693
O    -22.3622623550     2.2280128039    -0.5359492267
H    -14.6448754272    -3.5805105885    -3.0571176211
H    -17.8678316632    -4.5569532095    -1.7529802874
H    -17.2672040784    -1.2125061872    -2.9551839616
H    -17.0267886409    -3.6966542419    -3.0646776710
O    -20.6695632457     1.6900784207     0.9353793954
H    -19.1882472995     0.3683763330    -2.9677183984
H    -16.1489219694    -4.9003052467    -2.0735712195
H      7.9822769222    -0.6342680532     0.5477573141
C      7.9775769449    -1.6221503793     1.0191257134
H      6.2815232031    -1.1912513163     2.2753680754
H      7.4420310345    -2.9085667434     5.2384788907
C      7.0299533160    -1.9385089538     1.9905092104
C      8.9359855836    -2.5575665374     0.6234246288
C      6.4069109933    -2.6587547961     4.9554904364
H      4.7693255748    -4.3465411389     1.4283274341
H      5.7576390456    -2.8787909764     5.8206769499
H      2.4553565713    -3.8964910501     0.6328237541
C      4.1072372574    -3.7059086765     2.0209308042
H      6.3659011749    -1.5760039749     4.7555433036
C      2.8141205409    -3.4534991188     1.5671508849
C      7.0203655016    -3.2121024480     2.5929931815
C      5.9931880575    -3.4941134619     3.7158509600
C      8.9263392817    -3.8273649406     1.1979639405
C      4.5699928669    -3.1366708307     3.2237445443
C      7.9815958235    -4.1475476834     2.1799636516
C      1.9555051353    -2.6211606371     2.2888709855
O      0.6405317345    -2.4919405563     1.8118912137
H      9.6682963781    -4.5700538503     0.8957147717
C      3.6946189308    -2.3103181145     3.9452265949
C      2.3957870972    -2.0614427079     3.4864907149
C      0.0862975087    -1.2501589688     1.7246649654
C      5.9890372416    -4.9864969019     4.1386924822
H      8.0035372463    -5.1498487575     2.6172559605
H      5.7708634838    -5.6553598623     3.2907113540
H      4.0137592245    -1.8485720449     4.8837909805
H      6.9592494398    -5.2809329836     4.5749680948
O      0.5991452560    -0.1947820395     2.0079073051
H      1.7344540000    -1.4054188432     4.0573815268
H      5.2127872404    -5.1496297113     4.9034952603
O      9.7901906501    -2.1926502478    -0.4303794241
C    -24.3231655552     3.1899437173     0.4159309435
C    -22.9319977861     3.2104363610     0.2919295075
C    -22.1893239355     4.2365281779     0.8825505062
C    -22.8440761510     5.2292286651     1.6175549712
C    -24.2370610150     5.2065337690     1.7480287565
C    -24.9790713866     4.1849554481     1.1453319306
H    -21.1017898507     4.2485093618     0.7846307548
H    -26.0702329228     4.1590095859     1.2377272456
H    -24.8821387740     2.3834977199    -0.0680194442
H    -22.2558793998     6.0272894769     2.0831783492
H    -24.7458158866     5.9881947584     2.3224870381
C     20.1800439698     3.2872117374    -0.2580000238
O     19.6211124082     3.7938049747    -1.2001154527
O     20.9623747414     3.9026125250     0.6729986835
C     21.1899316679     5.2860257073     0.5731537892
C     21.0640158840     6.0298571934     1.7481241229
C     21.3698532948     7.3933066791     1.7555870334
C     21.8116315433     8.0104541120     0.5804372344
C     21.9446193271     7.2620750294    -0.5945262685
C     21.6437658998     5.8970384589    -0.5994675706
H     20.7198590660     5.5240847000     2.6553268214
H     21.2646404092     7.9671964207     2.6825550841
H     22.0519353257     9.0791147625     0.5784388567
H     22.2928915401     7.7381108499    -1.5175431170
H     21.7411376619     5.3133457236    -1.5173729188
