158
pc config_3770 from config_3770.mcos (coord_rad bohr -> angstrom)
C     -5.0669730969     1.9715382400     5.2767834937
C     -4.3829878888     3.1637975168     5.5389507732
C     -3.5173460357     3.7114509124     4.5800330087
C     -3.3604741719     3.0288537171     3.3573037951
C     -4.8955540800     1.3008887080     4.0691505155
C     -4.0492845858     1.8449948609     3.0985592022
C     -5.0946438255    -0.9770628020     3.3992237645
O     -5.6916413628     0.1657990857     3.8401687973
O     -3.9241053063    -1.1537633455     3.1670949561
H     -5.7404732150     1.5430448017     6.0257443464
H     -2.6849159361     3.4287267080     2.5933771441
C      1.4978431275     4.5563428761     4.0488930217
C      0.8034275178     3.6785609443     4.8863499122
C     -0.5643435824     3.8467424102     5.0940300031
C     -1.2757571944     4.8861889269     4.4622983327
C     -0.5699124814     5.7515367516     3.6126650516
C      0.8042823823     5.5807093757     3.4109198806
H      1.3352456569     2.8659511552     5.3870839959
H     -1.0821102836     6.5677536808     3.0955676444
H      1.3540331912     6.2517827219     2.7433096689
H     -1.0939973377     3.1434711111     5.7456535285
C     -2.7802782337     5.0576679730     4.7810571853
C     -2.8972874216     5.5721189276     6.2394923186
H     -2.5020994663     4.8438323088     6.9658460765
H     -3.9458278508     5.7951025297     6.5027511109
H     -2.3177348529     6.5027935783     6.3490820410
C     -3.4537974175     6.1073267076     3.8588071643
H     -3.0260309204     7.1126270611     4.0171988733
H     -4.5305400268     6.1603841339     4.0867037003
H     -3.3487402674     5.8468785357     2.7932940773
O      2.8519940719     4.3844484519     3.7148135014
H     -4.5356715979     3.6590294455     6.5020010208
H     -3.9051551024     1.3265065254     2.1475301144
H      4.4650132841    -8.0474759787     0.9517661503
C      4.5340275761    -7.4260905660     0.0533975249
H      6.5767635479    -6.8607941779     0.4214603242
H      7.8795096584    -7.1729054134    -2.6210211578
C      5.7222487112    -6.7532068421    -0.2525992697
O      2.2871581133    -8.0905360851    -0.4806398377
C      3.4205289366    -7.3105484324    -0.7731760876
C      7.7491532193    -6.1381072433    -2.9763590743
H      7.9314022080    -3.9323025942    -4.1977207907
H      8.7411347799    -5.7584489612    -3.2771964622
H      7.5377348005    -1.5539228375    -4.7815968975
C      7.3642538513    -3.3014339245    -3.5077297530
H      7.1006811999    -6.1678323723    -3.8671069430
C      7.1464887545    -1.9607550155    -3.8437311040
C      5.8158559893    -5.9589555034    -1.4061816076
C      7.1336406108    -5.2748641096    -1.8432762954
C      3.5029067810    -6.5275569177    -1.9264007233
C      6.8626873078    -3.8234421845    -2.3057592772
C      4.6830464002    -5.8541020624    -2.2377523783
C      6.4212348185    -1.1235619035    -3.0012829170
O      6.3309608542     0.2347703383    -3.3510437200
H      2.6292329176    -6.4303356940    -2.5773502613
C      6.1374542905    -2.9637510832    -1.4563555505
C      5.9266422429    -1.6279223608    -1.7951448231
C      5.0991778642     0.8163558733    -3.3951043641
C      8.1669613114    -5.2127731454    -0.6869092742
H      4.7236751830    -5.2340598987    -3.1395838277
H      9.0613601139    -4.6630708963    -1.0217965188
H      5.7257621477    -3.3468017936    -0.5162680329
H      7.7627986239    -4.6935466034     0.1971983635
O      4.0335436009     0.2976286191    -3.1701323933
H      5.3521887481    -0.9796606690    -1.1284823055
H      8.4900985886    -6.2228310335    -0.3816899624
H      3.3075424536     2.5839638670    -2.0092800394
C      3.2897914986     3.1907220723    -2.9177967018
H      1.5393534707     4.2834624603    -2.3122668138
H      2.0533684630     7.1995518193    -6.0117396594
C      2.2921976971     4.1479453007    -3.0963389920
O      5.3346242874     2.1069939250    -3.7642702247
C      4.2455193766     2.9811290461    -3.9164839671
C      1.1103001619     6.6737074193    -5.7822670107
H     -0.8955096383     6.8840936610    -2.6132849151
H      0.2937297618     7.4120914675    -5.8277538999
H     -3.1490097380     5.8836625477    -2.3319859410
C     -1.1617288673     5.9976651733    -3.1960365288
H      0.9279900967     5.9237145306    -6.5686664737
C     -2.4355103978     5.4416367553    -3.0344271710
C      2.2380025986     4.9362936460    -4.2630788902
C      1.1518827942     6.0335630225    -4.3700437161
C      4.2073897050     3.7596988463    -5.0698781619
C     -0.2433547782     5.4260069665    -4.0897659269
C      3.2124151908     4.7267253603    -5.2506351571
C     -2.8168229943     4.3137999247    -3.7564868757
O     -4.0775268786     3.7636219623    -3.4688847986
H      4.9665897211     3.5950070029    -5.8409975420
C     -0.6374697267     4.2783043304    -4.8061969298
C     -1.9065376341     3.7264051195    -4.6391614637
C     -4.9077242191     3.4431751236    -4.5004684558
C      1.5118309193     7.1537168176    -3.3589365256
O     -6.0281653373     2.9436958752    -3.9065519164
H      3.2093528723     5.3146101667    -6.1727937612
H      2.5301702575     7.5211768439    -3.5642994306
H      0.0654703264     3.7972971788    -5.4946794815
H      0.8208252229     8.0100632063    -3.4469677780
O     -4.6966312686     3.5740709606    -5.6815596573
H     -2.1934389265     2.8371093761    -5.2053397614
H      1.4889000640     6.7918033203    -2.3184126917
H     -6.7385284397    -4.0322309513     4.5932940880
C     -6.2462137017    -4.2480686058     3.6397584895
H     -6.4167162563    -6.3810273717     3.8635915853
H     -7.2905356812    -7.2282167072     0.6509615020
C     -6.0606345013    -5.5704624100     3.2218040363
C     -5.7988381709    -3.1850810440     2.8609870008
C     -6.2760747607    -7.4639637586     0.2909778330
H     -4.2767225680    -8.4805098788    -0.9079474722
H     -6.2853694870    -8.5039593438    -0.0780529262
H     -1.9119909774    -8.9439371175    -1.4932709556
C     -3.4869750564    -8.1683434463    -0.2187643907
H     -6.0543468648    -6.7948863057    -0.5562884418
C     -2.1549169189    -8.4333425329    -0.5561465789
C     -5.4284226966    -5.8479435911     2.0002620254
C     -5.2599388352    -7.2843238474     1.4501926170
C     -5.1795043820    -3.4476377584     1.6357799918
C     -3.8025343860    -7.5170792091     0.9838837377
C     -4.9892254272    -4.7630808152     1.2150293774
C     -1.1189202212    -8.0458822616     0.2882661032
O      0.1930133783    -8.4282345623    -0.0442101802
H     -4.8200971557    -2.6198084320     1.0190440738
C     -2.7448901284    -7.1353556493     1.8333888053
C     -1.4205358689    -7.4027209231     1.4904704519
C      1.1142055432    -7.4408272095    -0.2340780581
C     -5.5795859989    -8.3570558198     2.5248913026
H     -4.4836351110    -4.9502756867     0.2614574272
H     -6.6368851634    -8.3095275655     2.8387138241
H     -2.9600614807    -6.6176259741     2.7741897043
H     -5.3982380410    -9.3608075698     2.1081765739
O      0.9305799393    -6.2497735763    -0.1927820950
H     -0.6096035414    -7.0929417168     2.1559818541
H     -4.9439259102    -8.2440126835     3.4182003097
O     -6.1073357043    -1.8832787341     3.2920628697
C     -7.6991225366     1.3052989825    -4.3498409646
C     -7.1021146945     2.5169241227    -4.7060069725
C     -7.6438551410     3.2906491815    -5.7362740272
C     -8.7719954766     2.8337995170    -6.4240430788
C     -9.3672579330     1.6171707149    -6.0728483694
C     -8.8301999533     0.8508988849    -5.0327339527
H     -7.1737477537     4.2364565535    -6.0132919571
H     -9.2898178114    -0.1012704956    -4.7464207250
H     -7.2636528235     0.7257711852    -3.5304429192
H     -9.1879947227     3.4416044445    -7.2347546151
H    -10.2527861064     1.2649281702    -6.6128549034
C      3.7638353197     4.2421245176     4.7169030696
O      3.5592068968     4.2648885085     5.9059719540
O      4.9589811366     4.0835226499     4.0813315167
C      6.1282482883     3.9173641535     4.8430145312
C      6.2377632633     2.9795928253     5.8741158646
C      7.4653166043     2.8039560477     6.5193541318
C      8.5838245524     3.5464300612     6.1246225057
C      8.4743691168     4.4741781046     5.0832798398
C      7.2455737971     4.6532395297     4.4426959760
H      5.3629959432     2.4050823000     6.1857966667
H      7.5443809469     2.0732817831     7.3316028233
H      9.5435733363     3.4015907853     6.6322755503
H      9.3431758940     5.0587580244     4.7621029774
H      7.1359100210     5.3698692810     3.6231513141
