158
pc config_3720 from config_3720.mcos (coord_rad bohr -> angstrom)
C     -8.9615128883    -4.8650029618     3.2085580067
C     -8.4579401917    -6.1581881838     3.0295220091
C     -7.1217525664    -6.3562932012     2.6498018056
C     -6.3099305290    -5.2209758527     2.4551252837
C     -8.1510453121    -3.7509439982     3.0064662253
C     -6.8141059261    -3.9348761820     2.6423488166
C     -8.5467444487    -1.4739069152     2.4141729212
O     -8.7032090814    -2.4939149156     3.3042578095
O     -7.9800635506    -1.5090258252     1.3490458530
H    -10.0038812535    -4.7118311809     3.5048578701
H     -5.2650243329    -5.3438108291     2.1504278817
C     -4.5342898347    -8.1417550417    -1.3903274509
C     -5.8424886519    -7.6662784815    -1.2794680242
C     -6.4479316940    -7.5268476478    -0.0321611630
C     -5.7487078901    -7.8624621922     1.1440367718
C     -4.4308610733    -8.3290165205     1.0209723976
C     -3.8247520479    -8.4603447753    -0.2337942943
H     -6.3833290822    -7.3996764166    -2.1929730197
H     -3.8508833905    -8.5926917505     1.9099146511
H     -2.7991647456    -8.8297645370    -0.3053265748
H     -7.4709254597    -7.1404394427     0.0290433240
C     -6.4853181321    -7.7591409389     2.5010288660
C     -7.5486316640    -8.8875582011     2.5477238242
H     -8.3159387474    -8.7634419174     1.7665582073
H     -8.0519621994    -8.9230316472     3.5294333174
H     -7.0590839270    -9.8611958556     2.3853650345
C     -5.5253170435    -7.9717813755     3.7010423203
H     -5.1008581707    -8.9906749026     3.6982637813
H     -6.0807265535    -7.8413193634     4.6437305407
H     -4.6947959357    -7.2476071941     3.6977141585
O     -3.9655740489    -8.1587042119    -2.6748771160
H     -9.1240743105    -7.0104046096     3.1915695653
H     -6.1711605367    -3.0671109896     2.4766260650
H     -2.7214318576     9.8687232451    -1.4329030645
C     -1.7347367565     9.7003189765    -0.9951525437
H     -0.7124201513    10.6352408402    -2.6368930599
H      1.7709838370    12.3638463484    -0.8811529971
C     -0.5887811270    10.1250453770    -1.6776003680
O     -2.7214533668     8.6588899773     1.0087810900
C     -1.6189389692     9.0346606548     0.2234809809
C      2.5429979357    11.5839770951    -0.9807610128
H      4.7113597816    10.2762589406    -1.0778379443
H      3.4244727973    12.0423702952    -1.4617913017
H      6.2730108821     8.3773639185    -1.4115473930
C      4.3415366873     9.3574332969    -1.5418672208
H      2.8278843703    11.2615914628     0.0336801935
C      5.2284767469     8.2910508749    -1.7266549293
C      0.6914976335     9.9068416352    -1.1456913119
C      1.9864789282    10.4097397090    -1.8276755100
C     -0.3505020502     8.8204945462     0.7674778414
C      3.0021026081     9.2477544521    -1.9453602975
C      0.7930720148     9.2439824794     0.0933042773
C      4.7993530633     7.1001368250    -2.3067391679
O      5.7743577302     6.1174792457    -2.5468534967
H     -0.2706146309     8.3042615876     1.7292055842
C      2.5818296060     8.0400621588    -2.5374187224
C      3.4711944758     6.9834047874    -2.7266804237
C      5.5118555057     4.8250517525    -2.2041827740
C      1.7188682800    10.9496969885    -3.2570640675
H      1.7781111654     9.0467567140     0.5299351756
H      2.6720365449    11.2492148825    -3.7217413352
H      1.5398576371     7.9213643813    -2.8535254218
H      1.2540190036    10.1888869867    -3.9044312837
O      4.5104643494     4.3898040738    -1.6899025811
H      3.1228436281     6.0515582908    -3.1783162708
H      1.0619103747    11.8365231695    -3.2334510433
H      6.0256276240     2.7699735599    -0.2839713446
C      6.3844539637     2.1543561500    -1.1120860511
H      6.3185088327     0.3367205178     0.0356649859
H      7.1856151185    -2.1919950629    -3.8742651754
C      6.5407933918     0.7798270800    -0.9410365375
O      6.6269839921     4.1317557135    -2.5685829903
C      6.6727563032     2.7454943472    -2.3454138122
C      7.7744830510    -2.2933074953    -2.9461477035
H      6.4770985845    -3.1567194999     0.4975298308
H      7.8601876998    -3.3677673624    -2.7174879330
H      7.9383824123    -3.6222862963     2.4483609876
C      7.4695209274    -2.6990347189     0.5414935822
H      8.7898584404    -1.9085793615    -3.1330796699
C      8.2889374201    -2.9692638385     1.6431458940
C      6.9959175467    -0.0377818080    -1.9947249030
C      7.0864892273    -1.5651498543    -1.7620993507
C      7.1337170168     1.9498847724    -3.3911653134
C      7.9136841583    -1.8535359450    -0.4863102286
C      7.2948836811     0.5701061489    -3.2234083090
C      9.5595814950    -2.4080840260     1.7399809141
O     10.2799361698    -2.6546200122     2.9210134632
H      7.3744769042     2.4242475470    -4.3475664838
C      9.1970329337    -1.2828400954    -0.3707214077
C     10.0087616782    -1.5529618994     0.7297433522
C     11.5878557045    -3.0250772654     2.8338364015
C      5.6396864155    -2.1131305976    -1.6527922842
O     11.9939619421    -3.1834573306     4.1252602702
H      7.6585631633    -0.0245083448    -4.0663306587
H      5.0751721493    -1.8451976457    -2.5602778851
H      9.5626239432    -0.6022647011    -1.1471404393
H      5.6341837565    -3.2134800593    -1.5648761715
O     12.2433296494    -3.1793472039     1.8321364524
H     11.0022682281    -1.1037259701     0.7983617292
H      5.1030866433    -1.6909151711    -0.7881096918
H     -9.8150095173     0.0788306155     0.3836466671
C     -9.5949256994     0.9641680208     0.9845569174
H     -9.9889963773     2.3135592568    -0.6399255365
H    -11.6561714071     4.8543544673     1.0887067811
C     -9.6825574882     2.2363886220     0.4070161441
C     -9.1952659884     0.8223592278     2.3119221456
C    -10.7647917899     5.4791189866     1.2596148621
H     -9.1464891900     7.3518676400     1.7897439229
H    -10.9674174539     6.4787252280     0.8372178865
H     -7.0053603014     8.5751475580     2.0665810948
C     -8.2196120248     6.8904008652     1.4371726741
H    -10.6306181597     5.5816113968     2.3484492149
C     -7.0166226558     7.5881702977     1.5938360861
C     -9.3900947018     3.3896923645     1.1512457209
C     -9.5342017358     4.8217135491     0.5818700358
C     -8.9099092023     1.9636835184     3.0650151837
C     -8.2342110806     5.6204678653     0.8409361274
C     -8.9989285991     3.2321668529     2.4954816621
C     -5.8137306663     7.0388148818     1.1584778466
O     -4.6386913012     7.7572424487     1.4365531935
H     -8.6063273209     1.8423020156     4.1095149988
C     -7.0084579077     5.0707114545     0.4146334957
C     -5.8129640747     5.7691775514     0.5741685971
C     -3.7381107443     7.9577031455     0.4334304962
C     -9.7902347135     4.8167727985    -0.9477797759
H     -8.7518315811     4.1113641255     3.1003402134
H    -10.7507183593     4.3301633905    -1.1910967282
H     -6.9853733815     4.0723123197    -0.0351223424
H     -9.8354427817     5.8541206745    -1.3164711339
O     -3.8244287018     7.5940931648    -0.7141647930
H     -4.8731496379     5.3275453621     0.2338655259
H     -8.9882416451     4.2999340584    -1.4986265009
O     -9.1703219943    -0.4079793022     2.9893463080
C     13.9408218438    -4.6520919155     3.7618766371
C     13.3190235709    -3.5693437697     4.3899570282
C     13.9740528473    -2.8813253677     5.4141109825
C     15.2610163810    -3.2597612353     5.8048322068
C     15.8908888604    -4.3353444423     5.1693352859
C     15.2308925412    -5.0276750732     4.1480892855
H     13.4594840838    -2.0463086155     5.8988542856
H     15.7153538826    -5.8730104614     3.6476746866
H     13.4266168778    -5.1867306063     2.9605791061
H     15.7664735928    -2.7125702293     6.6079208817
H     16.9005391595    -4.6352327947     5.4701711667
C     -3.2902859793    -9.2669727899    -3.0879783435
O     -3.1081435355   -10.2902753219    -2.4745413333
O     -2.8763120986    -8.9716302578    -4.3526169624
C     -2.1419406240    -9.9261726006    -5.0768921413
C     -2.5197920183   -10.1318028986    -6.4053930904
C     -1.7812244444   -10.9904396622    -7.2237688952
C     -0.6540769301   -11.6392665769    -6.7083905111
C     -0.2721360460   -11.4263415385    -5.3791143336
C     -1.0083600093   -10.5627778479    -4.5628934275
H     -3.4030104390    -9.6103407665    -6.7865331168
H     -2.0887796495   -11.1459002339    -8.2634531024
H     -0.0711254739   -12.3149169884    -7.3435705276
H      0.6110649747   -11.9285970196    -4.9697525640
H     -0.7147705027   -10.4010211775    -3.5235602040
