158
pc config_590 from config_590.mcos (coord_rad bohr -> angstrom)
C    -11.0556160683     2.0208753974     1.3521795191
C    -10.9519430023     3.4088732237     1.2735437556
C    -11.7599899002     4.1496601871     0.3880731476
C    -12.6687526535     3.4515857313    -0.4215639530
C    -11.9549450428     1.3362683271     0.5299484130
C    -12.7636557637     2.0577331784    -0.3442784965
C    -11.1164624541    -0.8969660971     0.5733237211
O    -12.1811793017    -0.0476299797     0.6178804344
O     -9.9501192312    -0.6083522082     0.4593192659
H    -10.4128267831     1.4635029671     2.0377794391
H    -13.3151070177     3.9858807536    -1.1236893218
C     -7.5033678466     6.9252662653    -0.2012290043
C     -8.1039772947     5.9851304713    -1.0438165553
C     -9.4235347246     5.5936697623    -0.8245913458
C    -10.1724545152     6.1196844198     0.2468141194
C     -9.5525305781     7.0499689060     1.0949037181
C     -8.2287088233     7.4426542880     0.8683560981
H     -7.5429584355     5.5660366637    -1.8823738853
H    -10.0918194597     7.4787547271     1.9441594311
H     -7.7429891762     8.1635249129     1.5335521885
H     -9.8749662897     4.8497280170    -1.4898490204
C    -11.6523222851     5.6937809613     0.3986128623
C    -12.2694137529     6.2007030240     1.7283614860
H    -11.7093101020     5.8404377261     2.6062814878
H    -13.3047744948     5.8341620309     1.8169179547
H    -12.2986460498     7.3036942425     1.7610854994
C    -12.4506416795     6.3396707393    -0.7638997698
H    -12.3048149558     7.4316934176    -0.7480231761
H    -13.5322966723     6.1428409071    -0.6651562079
H    -12.1167432261     5.9714561345    -1.7472990973
O     -6.1507536769     7.2920123416    -0.3006645032
H    -10.2264894975     3.9253782172     1.9112198143
H    -13.4727710677     1.5142410003    -0.9763785724
H      1.1645257739    -5.3280006033    -1.3005871916
C      1.4061879922    -6.2622897628    -0.7843652851
H      3.4061413426    -6.3706439003    -1.5763194362
H      4.2470291743    -8.4368239777    -2.7187498746
C      2.6589825059    -6.8528080356    -0.9366177293
O     -0.7631285081    -6.1354777851     0.2008399513
C      0.4377320120    -6.8451149842     0.0367515831
C      4.3514916131    -9.2469075795    -1.9792425462
H      6.5108129778    -7.9480699585    -2.1801825511
H      3.5040303846    -9.9376772912    -2.1158310197
H      8.3147817238    -6.3470536693    -1.6739024626
C      6.5012603912    -7.4312160668    -1.2165007256
H      5.2792127739    -9.8030838456    -2.1996407137
C      7.5341205565    -6.5303379709    -0.9319414280
C      2.9732004272    -8.0516550521    -0.2664621001
C      4.3507177153    -8.7083358799    -0.5245692132
C      0.7417423090    -8.0208600168     0.7201545131
C      5.4774679892    -7.6741736269    -0.2877968527
C      1.9962405772    -8.6222777990     0.5638768999
C      7.5510938125    -5.8428872525     0.2800071593
O      8.6000594858    -4.9969175522     0.6763291369
H     -0.0057194808    -8.4848110123     1.3674751282
C      5.5135007318    -6.9806492877     0.9380043298
C      6.5423461997    -6.0828594537     1.2158490505
C      9.0267028936    -4.0227647291    -0.1752899980
C      4.6067022321    -9.9126297138     0.4189083799
H      2.2018141253    -9.5476725778     1.1091373390
H      4.5523835491    -9.6238883467     1.4808682031
H      4.7231276899    -7.1386859497     1.6797961417
H      3.8784893751   -10.7226194588     0.2398321064
O      8.5994509674    -3.7675443520    -1.2749107774
H      6.5698243833    -5.5448647886     2.1685781391
H      5.6140900331   -10.3181208814     0.2322719887
H     12.6087969595    -3.2020069102     0.2812299768
C     12.0888565253    -2.3350803906    -0.1380948816
H     13.9060849491    -1.2986383947    -0.6412593736
H     12.9634820974     0.0216661093    -3.7495300463
C     12.8133035926    -1.2560668410    -0.6569825360
O     10.0429822622    -3.3994510652     0.4847020251
C     10.6966288538    -2.3231419309    -0.1385831412
C     12.6345760297     0.9985518605    -3.3602325895
H     12.6842462447     1.6724469403     0.8188208432
H     13.2041917447     1.7814764406    -3.8903762800
H     11.9963977985     3.7904009518     1.8918005663
C     12.3812046942     2.5178295692     0.1915712169
H     11.5671848656     1.1156193363    -3.6072685971
C     11.9986164697     3.7110148010     0.8020223131
C     12.1478723695    -0.1393169191    -1.1848168585
C     12.8858553009     1.0576361630    -1.8310506019
C     10.0218144027    -1.2111749817    -0.6496827004
C     12.3808980136     2.3827762890    -1.2109679368
C     10.7386519438    -0.1347491724    -1.1692887919
C     11.5806382814     4.7936609166     0.0223434352
O     11.2777208921     6.0546601273     0.5636084113
H      8.9293362628    -1.1897581935    -0.6483298554
C     11.9745393447     3.4822485483    -1.9823145998
C     11.5844753831     4.6757670845    -1.3645493828
C     10.3787967409     6.1357283393     1.5842160991
C     14.4189826824     0.9850917683    -1.6057834041
O     10.3103036055     7.4633114464     1.8845118839
H     10.1916563383     0.7326013227    -1.5540366810
H     14.8537536928     0.0971842942    -2.0969205788
H     11.9575992506     3.4231290114    -3.0741913781
H     14.8974280177     1.8778220135    -2.0397365106
O      9.7686196692     5.2314137930     2.0999952285
H     11.2657164747     5.5326616272    -1.9664179596
H     14.6773596675     0.9528541994    -0.5351214590
H    -11.8036707996    -4.0883010433     2.3680254751
C    -11.0434612940    -4.2590890167     1.5994514632
H    -10.5208848836    -6.2116549479     2.3366307308
H     -8.9097949287    -7.1884097421    -1.7120495339
C    -10.3156271492    -5.4538316997     1.5751412306
C    -10.8113877017    -3.2641040990     0.6532468026
C     -9.0888122876    -7.7518748728    -0.7821924631
H     -6.6461215373    -7.8928065919    -1.4221499113
H    -10.1762946376    -7.8990986947    -0.6828093659
H     -4.2220266265    -7.4562651537    -1.4447161311
C     -6.2185923872    -7.2586588486    -0.6405559244
H     -8.6214447530    -8.7469249870    -0.8811032036
C     -4.8411086886    -7.0102486639    -0.6632407533
C     -9.3414373689    -5.6746512225     0.5896542753
C     -8.5522328736    -6.9999878777     0.4641036147
C     -9.8529133373    -3.4770131114    -0.3418458089
C     -7.0372496473    -6.7037134733     0.3551232716
C     -9.1193720154    -4.6622818543    -0.3649954111
C     -4.2561589997    -6.2128937872     0.3186332486
O     -2.9003146479    -5.8469451373     0.3217577711
H     -9.6584235436    -2.7004443404    -1.0852854340
C     -6.4354494106    -5.8848895491     1.3309901713
C     -5.0628191179    -5.6466220566     1.3087696575
C     -1.9484957029    -6.8039685086     0.1373661916
C     -8.7653676657    -7.9218080152     1.6933103017
H     -8.3587879515    -4.8022370768    -1.1406603801
H     -8.1460972017    -8.8267966338     1.5860265358
H     -7.0489793913    -5.4195422450     2.1100318013
H     -8.4762267851    -7.4268607797     2.6344279190
O     -2.1181425797    -7.9857202158    -0.0426827856
H     -4.5968934977    -5.0045421834     2.0626743896
H     -9.8185209098    -8.2419343474     1.7760853248
O    -11.6568093298    -2.1427038760     0.6856994175
C      9.4480771158     7.3255906273     4.1872757367
C      9.4502901582     7.8933765464     2.9097386617
C      8.6659023983     9.0167304310     2.6401306180
C      7.8573680003     9.5680744761     3.6375127973
C      7.8427867934     8.9940357333     4.9131703966
C      8.6352849316     7.8730082960     5.1841138416
H      8.6967745181     9.4496424522     1.6356831195
H      8.6308574499     7.4199951490     6.1814145489
H     10.0614626360     6.4465164090     4.3959202663
H      7.2440544356    10.4474816567     3.4134808365
H      7.2101964959     9.4196886147     5.6995733810
C     -5.6610005954     7.6900846455    -1.5078645800
O     -6.2616346150     7.7866281750    -2.5501270001
O     -4.3472707769     7.9697058020    -1.2767556733
C     -3.5431198154     8.4146217071    -2.3401544428
C     -2.7155627281     9.5103539753    -2.0867814243
C     -1.8140528243     9.9525210189    -3.0585923245
C     -1.7377286792     9.2868197826    -4.2865985756
C     -2.5623091252     8.1840515304    -4.5361632511
C     -3.4598318263     7.7392600631    -3.5612973685
H     -2.7909449906    10.0121684258    -1.1173593901
H     -1.1715209670    10.8145955398    -2.8495433148
H     -1.0341371388     9.6283724459    -5.0534761643
H     -2.5053755721     7.6557372357    -5.4940186657
H     -4.1077522512     6.8821774017    -3.7570161947
