158
pc config_6680 from config_6680.mcos (coord_rad bohr -> angstrom)
C     11.4337299786     0.4374097855    -1.6370012159
C     12.7349313404     0.9223921129    -1.7501422007
C     13.8304765092     0.0371631561    -1.7835657992
C     13.5728910138    -1.3391848766    -1.6890169561
C     11.1888466717    -0.9354143089    -1.5517532028
C     12.2642073503    -1.8215179960    -1.5673523255
C      9.3448620367    -2.3646802236    -2.0683611763
O      9.8562390480    -1.3282169415    -1.3467844536
O      9.9102745132    -3.0317222059    -2.9007343576
H     10.5834968788     1.1257833944    -1.6044116208
H     14.3948680399    -2.0604093268    -1.7030017363
C     16.0761149355     3.6377002590     1.0718924962
C     16.2628695067     3.9529728171    -0.2724691901
C     15.9895340894     3.0026202954    -1.2635141075
C     15.5122974604     1.7259082172    -0.9290746619
C     15.3129451059     1.4263866525     0.4331426283
C     15.5938157594     2.3726242678     1.4164549073
H     16.6375435386     4.9393196378    -0.5549329959
H     14.9238739534     0.4454286692     0.7268570595
H     15.4324732727     2.1417870121     2.4740356492
H     16.1508705421     3.2791180704    -2.3091835940
C     15.2510742873     0.6194761351    -1.9793759164
C     15.3452344732     1.1603855057    -3.4299414504
H     16.3644859893     1.5173461796    -3.6580948306
H     14.6383618977     1.9864672206    -3.6089240856
H     15.1040907558     0.3527777417    -4.1395807802
C     16.3508962469    -0.4612821069    -1.8120899506
H     17.3437028355     0.0066137060    -1.9088958985
H     16.2673110990    -1.2402520092    -2.5896231027
H     16.3041923197    -0.9481152636    -0.8247132277
O     16.2429520808     4.5580300622     2.1197431246
H     12.9028927345     2.0035658372    -1.8030771230
H     12.0863056039    -2.8970402186    -1.4993383701
H     -5.0034052621    -6.2136382714    -0.2311945047
C     -4.6372007958    -5.9383879957     0.7627231415
H     -6.4895701594    -6.4137776714     1.7532804459
H     -6.0550089255    -5.3963104706     6.4969364209
C     -5.4638277827    -6.0505054234     1.8787621318
O     -2.6003909973    -5.2930571845    -0.2999858663
C     -3.3300518954    -5.4618263455     0.8881085957
C     -5.3399219508    -5.2681434624     5.6684676296
H     -6.3848429137    -3.3382748426     3.5319845258
H     -5.1480152464    -4.1891145352     5.5543640760
H     -8.5315387692    -2.1596068969     3.1918494932
C     -7.3244423694    -3.8739347733     3.7050025283
H     -4.3962675141    -5.7621033822     5.9581046111
C     -8.5316461390    -3.2031500522     3.5160752678
C     -4.9966319007    -5.6860799310     3.1569658125
C     -5.9277066242    -5.8924708594     4.3757916027
C     -2.8603553710    -5.0830740347     2.1441731742
C     -7.2978487599    -5.2233273193     4.1104764729
C     -3.6845723101    -5.2008416191     3.2695270773
C     -9.7439833929    -3.8722086051     3.7059155248
O    -10.9940123986    -3.2354183159     3.6254532115
H     -1.8410532226    -4.7063861386     2.2548859579
C     -8.5218858211    -5.8791381829     4.3118833230
C     -9.7311445418    -5.2033527768     4.1137667607
C    -11.2951109805    -2.5129261165     2.5100290580
C     -6.0631083221    -7.4192099056     4.6139212346
H     -3.2848907380    -4.8989836025     4.2416002066
H     -6.5462175003    -7.9275247382     3.7639010608
H     -8.5484787657    -6.9262419695     4.6267664051
H     -5.0623169756    -7.8611822538     4.7446876339
O    -10.6058275626    -2.3492696381     1.5328492042
H    -10.6851882348    -5.7159830269     4.2712881451
H     -6.6471608326    -7.6319971835     5.5260576741
H    -13.6797630668     0.2448245412     3.2343321793
C    -13.7698338382    -0.0438170140     2.1824466332
H    -14.9329748658     1.6859980719     1.6400351420
H    -17.1044430813     1.4929137072     0.4266493124
C    -14.4748494383     0.7562697555     1.2855081747
O    -12.5434041092    -2.0170029086     2.7387229175
C    -13.1549618936    -1.2226870682     1.7545481937
C    -16.9239957867     1.1289544341    -0.5975703013
H    -16.8839411791     3.6566998402    -0.5432977484
H    -17.2123746078     0.0660515993    -0.6319224353
H    -16.0301458556     5.9676212588    -0.5209920978
C    -15.8156318860     3.8247942932    -0.7067166345
H    -17.5871711295     1.6807304512    -1.2861811961
C    -15.3366630164     5.1399868697    -0.6861880564
C    -14.5920363285     0.3854800331    -0.0686199831
C    -15.4365006565     1.2748682521    -1.0126646407
C    -13.2727417495    -1.6075609215     0.4206036167
C    -14.9502271733     2.7413887893    -0.9225831258
C    -13.9778062167    -0.8058778426    -0.4846978317
C    -13.9830639012     5.3948769643    -0.8994003356
O    -13.4110286067     6.6741943515    -0.8016626404
H    -12.7915456505    -2.5248963178     0.0733540219
C    -13.5814143811     3.0123019204    -1.1179506603
C    -13.1108279391     4.3237537495    -1.1049848766
C    -13.9824390625     7.7132311576    -1.4717736836
C    -15.3191076109     0.8274006951    -2.4931051518
O    -13.1982688696     8.7892700822    -1.1801288936
H    -14.0440660630    -1.1303442600    -1.5269401103
H    -15.7304668460    -0.1866259345    -2.6380211703
H    -12.8750963530     2.1890111962    -1.2694925464
H    -15.8917530239     1.5180731833    -3.1326315307
O    -14.9607618741     7.6860993925    -2.1779577838
H    -12.0467882737     4.5342052467    -1.2521240648
H    -14.2747608744     0.8328563642    -2.8442346048
H      7.7221911667    -3.1442348301    -4.2731972204
C      7.1025939038    -3.7014337417    -3.5670956481
H      6.1166851068    -4.8095266813    -5.1210473546
H      6.0104496193    -7.9710175758    -3.6115343320
C      6.1924868704    -4.6538257515    -4.0412447688
C      7.2338406728    -3.4778201805    -2.1979080968
C      4.9966473454    -7.8603986011    -3.1944391985
H      2.7111203555    -8.2274307471    -2.1743215152
H      4.3828307568    -8.6961555794    -3.5729153496
H      0.4552401547    -7.7572965644    -1.3003898142
C      2.2836115855    -7.2326184768    -2.3277926454
H      5.0722828906    -7.9522046028    -2.0990666945
C      0.9980812373    -6.9756067541    -1.8367650048
C      5.3876640266    -5.3880993713    -3.1566275170
C      4.4072508869    -6.4912046309    -3.6230585895
C      6.4320862209    -4.1973133342    -1.3082651045
C      3.0097099950    -6.2417878582    -3.0065381568
C      5.5191833444    -5.1401913894    -1.7759022666
C      0.4234787691    -5.7167828109    -2.0007013840
O     -0.8918059557    -5.4075886476    -1.6166277178
H      6.5290462492    -4.0001459074    -0.2360962569
C      2.4109385677    -4.9779038128    -3.1767873979
C      1.1322570116    -4.7258517189    -2.6839563989
C     -1.3063629955    -5.7148777338    -0.3556054042
C      4.2484035918    -6.5136480987    -5.1657458406
H      4.8918799716    -5.6819553581    -1.0597344807
H      3.8966953906    -5.5461754232    -5.5586138567
H      2.9550851049    -4.1793903777    -3.6927430619
H      5.2014351757    -6.7662046725    -5.6621477749
O     -0.6662776720    -6.2449712368     0.5200283235
H      0.6677466025    -3.7437484472    -2.8166422346
H      3.5083601402    -7.2796562496    -5.4479244505
O      8.0557207021    -2.4826415264    -1.6442347311
C    -14.7970934131    10.6078950380    -1.6239255179
C    -13.5223988100    10.0431522608    -1.7263143369
C    -12.4721410175    10.7779990949    -2.2800582158
C    -12.6917745819    12.0739139684    -2.7544371962
C    -13.9692966234    12.6369214726    -2.6653247754
C    -15.0191766038    11.9020261850    -2.1032184733
H    -11.4811585703    10.3174266259    -2.3356740734
H    -16.0213266609    12.3376951496    -2.0273860877
H    -15.6170757811    10.0311923427    -1.1906150219
H    -11.8608845729    12.6398780258    -3.1891814798
H    -14.1491518089    13.6516964955    -3.0363647976
C     17.3743694593     5.3147051172     2.1720119635
O     18.3024030664     5.3062355754     1.4001715411
O     17.2285250720     6.0845606799     3.2871206825
C     18.2400321416     6.9963490305     3.6342204940
C     19.5921346365     6.6493962208     3.7040405014
C     20.5254802559     7.5913155342     4.1469812401
C     20.1079488358     8.8692407912     4.5348643185
C     18.7521606091     9.2095845430     4.4757560455
C     17.8208226134     8.2695339821     4.0273594964
H     19.9165544582     5.6537412799     3.3945932083
H     21.5844674352     7.3155032358     4.1935960768
H     20.8427913023     9.6027198124     4.8839322870
H     18.4132000148    10.2056773508     4.7803075811
H     16.7548676838     8.5107237885     3.9764575384
