167
petg petg_a_86250 from petg_a_86250.mcos (coord_rad bohr -> angstrom)
C      0.4368877129    -7.1102067737    -1.6439422125
C     -1.0106959374    -7.0659083965    -2.0369959210
C     -2.0280271237    -6.8054091459    -1.0996103165
C     -3.3624071026    -6.7697953270    -1.5006918200
C     -3.7054734155    -6.9934353386    -2.8471020058
C     -5.1262875974    -6.9665615585    -3.3204975957
O     -5.4738405610    -7.1983774778    -4.4714077707
O     -5.9942273836    -6.6538975659    -2.3281014729
C     -2.6888465978    -7.2543990610    -3.7813051075
C     -1.3568848390    -7.2892118105    -3.3801221488
O      1.3426154161    -7.3722097258    -2.4269913236
H     -1.7647785120    -6.6312356645    -0.0532093434
H     -4.1492094642    -6.5675095870    -0.7694038134
H     -2.9608594846    -7.4285274777    -4.8265718504
H     -0.5622860080    -7.4913799490    -4.1046077400
C     -7.4007017094    -6.6042782056    -2.7057785529
C     -8.2120762218    -6.2984592474    -1.4674342643
H     -7.7059634733    -7.5834444589    -3.1095188358
H     -7.5435156776    -5.8377133971    -3.4843805455
O     -7.9230744151    -4.9292739426    -1.0613268131
H     -9.2849180448    -6.3927097639    -1.7017122542
H     -7.9664583193    -6.9840163074    -0.6403268454
H     14.4043827315    -2.6438693158     4.5704537079
C     14.2347411058    -1.8526444583     3.8220360186
C     14.7327512556     1.2168619576     0.0739100012
C     14.6167745393     2.3312270949    -0.7549410379
C     15.5040562538     0.1106009940    -0.3279807394
C     15.2691032353     2.3601038794    -2.0020121113
H     16.0868832439    -2.3312616656     2.8504701734
O     14.9415245218    -1.0183599430     1.6797040052
C     15.1647167644     3.5354044919    -2.9240179520
C     16.1553489834     0.1414879790    -1.5726142246
O     15.7087862897     3.5973136545    -4.0188664680
C     15.6574556075    -1.1059529389     0.5330978023
C     16.0372831439     1.2530809420    -2.4009406039
H     14.2240021989     1.1978827547     1.0410888410
H     14.0173495982     3.1889244121    -0.4395622233
O     12.8231059047    -1.8211783924     3.4622200110
C     15.0325312576    -2.1637319006     2.5762642035
O     16.3480741648    -2.0737623692     0.2412671255
H     16.7542873997    -0.7210239378    -1.8794359201
H     16.5414532001     1.2800447926    -3.3714833949
H     14.5228417927    -0.8824514065     4.2578744392
H     14.6510881672    -3.0609506417     2.0626285072
H     -8.6705808189     2.4931384534     4.7425331874
C     -8.6969521356     3.2447287061     3.9370700213
C     -6.9462524508    -1.0465290888     0.0251213832
C     -7.2540255837    -2.3551236714    -0.3380999871
C     -7.6461261759    -0.4032809593     1.0589297971
C     -8.2751522284    -3.0486972541     0.3390539669
H     -7.8963879357     3.5512907354     1.9386225437
O     -8.0592751225     1.5100661917     2.3976869472
C     -8.6403866301    -4.4582987848    -0.0132693390
C     -8.6680932612    -1.0964644196     1.7352518439
O     -9.4913797975    -5.1158682740     0.5718265841
C     -7.2785342493     1.0053501194     1.4125947375
C     -8.9730978667    -2.4065556530     1.3748666630
H     -6.1526996581    -0.4984091196    -0.4923208534
H     -6.7043690172    -2.8456782041    -1.1449205509
O    -10.0503573446     3.3363046944     3.4051747102
C     -7.7674564360     2.8791893678     2.8022609516
O     -6.3763123737     1.6362726031     0.8769534406
H     -9.2189089045    -0.6053980712     2.5409989795
H     -9.7638795570    -2.9560581958     1.8950844325
H     -8.3992378343     4.2217522407     4.3514086306
H     -6.7237056191     2.9430106814     3.1509469738
H     15.1656390133     5.9246146369    -3.7796327193
C     14.2384617346     5.7286542587    -3.2181967966
C      9.3489496692     4.9294483176    -2.3750724559
C      8.1242167758     4.6882340778    -1.7550873576
C      9.8463827748     6.2422546270    -2.4758429454
C      7.3769956565     5.7544969793    -1.2215302054
H     13.0510618496     6.5065599795    -4.8304079152
O     11.8037800807     5.4196210705    -3.5330440282
C      6.0598231660     5.5361184446    -0.5478450651
C      9.0971076179     7.3050284158    -1.9428286356
O      5.3680984417     6.4294864140    -0.0771994885
C     11.1571587976     6.5442886623    -3.1348662075
C      7.8760611609     7.0642829680    -1.3214777576
H      9.9275487650     4.0991837362    -2.7876693999
H      7.7392529781     3.6677219776    -1.6811204220
O     14.4003471933     4.5299174126    -2.4047924370
C     13.0853589249     5.6010194985    -4.2042317128
O     11.5957411816     7.6752516792    -3.2989545076
H      9.4893096226     8.3229916417    -2.0246980698
H      7.2903037702     7.8888043528    -0.9045837982
H     14.0594583901     6.5358455794    -2.4955545693
H     13.1970154236     4.7109154131    -4.8377176345
C    -14.7317172411     4.2639131816     3.8972946366
C    -13.4553463898     4.1867769366     4.4463606930
C    -14.9464161728     3.9482421259     2.5452400036
C    -12.3639297042     3.7929447766     3.6539357411
O    -16.4022923071     3.6776840387     0.6930110858
C    -11.0061580529     3.7266125532     4.2829086140
C    -13.8540412045     3.5525117175     1.7507920097
O    -10.7754832586     3.9944374108     5.4551647824
C    -16.3369398048     4.0464876227     1.9888464107
C    -12.5747991856     3.4762758332     2.2990131651
H    -15.5842854091     4.5712989393     4.5104669230
H    -13.2854809904     4.4316209858     5.4990406960
O    -17.3052849247     4.4202476263     2.6418403366
H    -14.0154099912     3.3060347312     0.6980514990
H    -11.7294546095     3.1693558976     1.6778823497
C    -17.6142440164     3.2809090935    -1.3869545960
C    -16.7046908416     4.1921405908    -2.2401260048
C    -16.6473168802     3.7215987918    -3.7043478111
H    -15.6841090691     4.1888077707    -1.8124093515
H    -17.0673571110     5.2360370859    -2.1899832579
C    -16.1906187769     2.2542118604    -3.8149779054
H    -15.9723031715     4.3700123961    -4.2897500527
H    -17.6536317953     3.8152618964    -4.1627207408
C    -17.1136936074     1.3446311772    -2.9765857356
C    -17.1849643710     1.8023789745    -1.5072831236
H    -16.7636110891     0.2970868615    -3.0280173176
H    -18.1312574664     1.3606229814    -3.4179001449
H    -16.1928974929     1.6736902795    -1.0344987068
H    -17.8900739910     1.1612178266    -0.9456670797
C    -16.1312406765     1.7610059210    -5.2699539927
H    -15.1638488976     2.1761638941    -3.3954286355
O    -15.2010648676     2.4960485578    -6.0943734929
H    -17.1168476911     1.8896005727    -5.7531001551
H    -15.8864041613     0.6789821084    -5.2843759297
H      1.9005707517    -7.1406937806     1.2227148553
H      4.8997414584    -3.9023271983    -0.6872845139
H      4.6710609822    -6.3282700503    -0.1377569196
H      2.6491004098    -5.1850199587    -1.0327174749
H      2.5671013023    -7.6129334112    -0.3845946306
C      2.0004035250    -6.8452204221     0.1655932024
C      2.6672194569    -5.4713454477     0.0378166223
C      4.1446610552    -5.5767253346     0.4784410192
C      4.8598184788    -4.2166014608     0.3751067332
H      2.6124617383    -2.6620708564    -0.2962999304
H      0.8954047190    -4.2840136692     0.5117411936
C      1.9407038572    -4.3821863518     0.8536076895
H      5.9054653170    -4.3145492580     0.7159761079
C      2.6561039832    -3.0221650518     0.7513015314
O      0.6208722026    -6.8355174995    -0.3332389477
C      4.1336990108    -3.1277288104     1.1915602097
H      4.1883809208    -5.9359610890     1.5263380919
C      8.1823291564    -1.3678582368     4.5910190797
C      9.5186022106    -1.3949108278     4.9783930498
C      7.8277877923    -1.5360033476     3.2420709228
C     10.5312618454    -1.5880110596     4.0235573062
C      8.8408353602    -1.7312241723     2.2844418454
C     10.1796762032    -1.7550640790     2.6711325326
O      6.1826275337    -1.7617673809     1.5512172028
C     11.9569412603    -1.6085941504     4.4823406776
O     12.3095241359    -1.4543601115     5.6446511498
C      6.3761050981    -1.5014870972     2.8634256635
H      9.7973482340    -1.2657498690     6.0284164328
H      7.3910070542    -1.2153533260     5.3310897649
H     10.9634463439    -1.9034180744     1.9238580329
H      8.5707926956    -1.8627172378     1.2335546789
O      5.4751549790    -1.2589242795     3.6581518711
H      1.8997746309    -4.6967641597     1.9158616751
H      2.1296982343    -2.2710257399     1.3680345391
O      5.6965862742     4.2290562686    -0.5053538150
H      4.8279698521     4.1830671039    -0.0501407391
H    -14.3114117461     2.3526004538    -5.7233236276
C      4.7990980113    -1.7532113104     1.0635771215
H      4.1524272528    -3.4144485273     2.2619138556
H      4.2355879574    -0.9876984486     1.6201898371
H      4.8906390502    -1.4542515248     0.0066594483
C    -17.7276355033     3.7467596211     0.0640261895
H    -18.4153915708     3.1063021332     0.6423588833
H    -18.0821436172     4.7897707754     0.1270737175
H    -18.6472412625     3.3671135452    -1.7864494571
