167
petg petg_a_21180 from petg_a_21180.mcos (coord_rad bohr -> angstrom)
C     -8.8895978299    -5.5391372559     0.2710117673
C     -8.9635529214    -4.4385551603     1.2887799680
C    -10.1233559693    -4.3123691729     2.0717001226
C    -10.2278616594    -3.2970150789     3.0179712777
C     -9.1801100798    -2.3768817574     3.1912346883
C     -9.3384140713    -1.2835736550     4.2018644680
O    -10.2452991018    -1.2303451286     5.0219607331
O     -8.3578106260    -0.3497497874     4.1002709586
C     -8.0179776395    -2.4989568695     2.4068463598
C     -7.9083348053    -3.5251129419     1.4704109468
O     -9.8167555817    -6.3003527928     0.0189541239
H    -10.9415106523    -5.0239369724     1.9248954744
H    -11.1275109804    -3.1992067233     3.6327549147
H     -7.2000577548    -1.7860764067     2.5384279050
H     -7.0024381909    -3.6220243663     0.8663943998
C     -8.4143060826     0.7701301630     5.0298803202
C     -9.3726380138     1.8575463090     4.5667047515
H     -7.3814965660     1.1448359684     5.0723116692
H     -8.7278617712     0.4163061635     6.0251182777
O     -8.9068203623     2.4527758437     3.3194256606
H    -10.3921605350     1.4715429640     4.4301050939
H     -9.3707428405     2.6714294998     5.3078752071
H      3.1970460684    -9.5617425496     3.1383918164
C      3.7877168748    -8.8049629886     2.5999310885
C      8.9394115298    -7.9279584705    -0.4509246952
C      9.7849316494    -6.8952442219    -0.8441960567
C      7.8760588975    -7.6776112381     0.4329028062
C      9.5970247474    -5.5946826665    -0.3465475591
H      5.5507399108   -10.0143812924     2.8423427993
O      5.9141937309    -8.4096652680     1.5440570800
C     10.5507028362    -4.5200770763    -0.7704655573
C      7.6760542132    -6.3722520033     0.9191160029
O     11.4121638599    -4.6635802115    -1.6283616705
C      7.0053057854    -8.8215386691     0.8539995374
C      8.5337782617    -5.3413146965     0.5394836209
H      9.0922669665    -8.9455455608    -0.8225961202
H     10.6109705355    -7.0839520817    -1.5363340907
O      2.9418049978    -8.3276443287     1.5130249818
C      5.0339908461    -9.4598331579     2.0407352528
O      7.2486473744    -9.9962763494     0.6106554353
H      6.8497312804    -6.1723515812     1.6060261142
H      8.3836294429    -4.3311026226     0.9289432627
H      4.0322079064    -7.9691990144     3.2718960237
H      4.7934678196   -10.1573640376     1.2227310611
H     -5.2879794403     8.3305678991    -3.9749713265
C     -5.4840974413     7.6971216251    -3.0944666678
C     -8.9751583137     3.0470974527    -1.4376642563
C     -9.4780197390     2.4393854144    -0.2920257409
C     -7.9910173852     4.0448720492    -1.3389513233
C     -8.9979312475     2.8051962199     0.9769813831
H     -7.0304526173     6.6905744347    -4.1818986212
O     -6.6581986139     5.7237735314    -2.3587101196
C     -9.5727453885     2.1255639315     2.1825527948
C     -7.5093964094     4.4156543128    -0.0698856111
O    -10.5315027716     1.3662827069     2.1401118785
C     -7.4984168555     4.6879406770    -2.5988719431
C     -8.0028637899     3.7955203610     1.0771076144
H     -9.3432194353     2.7616080134    -2.4275091284
H    -10.2525774362     1.6702575564    -0.3642505633
O     -4.2144593009     7.3451827960    -2.4692184873
C     -6.1743560595     6.4290454534    -3.5393639624
O     -7.8259724577     4.3329015469    -3.7238643196
H     -6.7440469512     5.1917624423     0.0124411355
H     -7.6237258380     4.0815509465     2.0616239499
H     -6.1009629763     8.2646561632    -2.3792945335
H     -5.4945507627     5.7710475944    -4.1046847070
H     11.0743944748    -1.9147827352    -1.4194839376
C     11.2845824457    -2.2815043964    -0.4016943245
C      7.7881107582     2.1849733936     1.7639274221
C      6.6016093248     2.8575406856     1.4827071302
C      8.2396758186     1.1464158476     0.9332049630
C      5.8432037119     2.5020715306     0.3517661032
H     11.1491347045    -1.5994548085     1.6563288815
O      9.8306386885    -0.5378942269     0.4117601506
C      4.5813652491     3.2315365305    -0.0080297878
C      7.4745752084     0.7815645851    -0.1912467925
O      3.9234824694     2.9865354372    -1.0148970535
C      9.5412471177     0.4805740058     1.2577726339
C      6.2903036611     1.4581308199    -0.4745644008
H      8.3905069954     2.4610086143     2.6349672073
H      6.2599990948     3.6669859322     2.1325091483
O     10.3672012415    -3.3680016478    -0.0809426895
C     11.1139103344    -1.1930811964     0.6328827088
O     10.2751560212     0.8199658450     2.1773941826
H      7.8161695109    -0.0261883203    -0.8431890648
H      5.6926871422     1.1902318860    -1.3515075535
H     12.3200952801    -2.6565502074    -0.3659564376
H     11.9214362270    -0.4516086283     0.5168797767
C     -0.5101976058     6.2653653044    -0.9048063107
C     -1.7580526302     6.6093278531    -1.4202593868
C      0.3910899393     7.2565783479    -0.4818636328
C     -2.1272309307     7.9643357071    -1.5169691742
O      2.5196386205     7.9051985657     0.3066122989
C     -3.4422395033     8.3927403039    -2.0938262821
C      0.0168986293     8.6113188897    -0.5719802077
O     -3.7821416716     9.5614410428    -2.2264718791
C      1.7328808786     6.8553107457     0.0444109268
C     -1.2306113523     8.9546334830    -1.0839122884
H     -0.2120092341     5.2150158501    -0.8292626340
H     -2.4483338773     5.8306805840    -1.7536815530
O      2.0634391272     5.6764364357     0.2058493236
H      0.7088503851     9.3901098683    -0.2427133878
H     -1.5288299985    10.0045810090    -1.1623983294
C      4.5848752824     8.9811935316     0.9812963959
C      5.9365146740     8.7639003633     1.6988036379
C      6.7086059713    10.0877835774     1.8649132385
H      6.5510822733     8.0538506208     1.1102029381
H      5.7705228376     8.2975339646     2.6872494677
C      6.9211512308    10.8033499566     0.5137435845
H      7.6833402279     9.8923251325     2.3484738602
H      6.1448684321    10.7565687680     2.5461225794
C      5.5676037423    11.0152167450    -0.1941796227
C      4.8053309104     9.6907857516    -0.3710798969
H      5.7266877732    11.4997551632    -1.1726858743
H      4.9543230859    11.7138926083     0.4109931760
H      5.3839948287     9.0181773342    -1.0359826427
H      3.8358462597     9.8717699751    -0.8676651120
C      7.6861371520    12.1131063494     0.7201663125
H      7.5525181395    10.1517720029    -0.1260374392
O      8.0318007994    12.6659367675    -0.5696327586
H      8.6036918501    11.9177379135     1.3128208288
H      7.0549573413    12.8266129955     1.2909553383
H     -7.7356864950    -7.6091452661    -0.9067507279
H     -3.6073101056    -5.2234178431    -2.1684633198
H     -5.9286020071    -4.3789607075    -1.8625792353
H     -5.4039074195    -6.6731362891    -0.9784906500
H     -8.2349228366    -6.4404615219    -2.1710502595
C     -7.5098057760    -6.6285823308    -1.3589921720
C     -6.0687387462    -6.5587494280    -1.8589702151
C     -5.7416199098    -5.2209674819    -2.5514428127
C     -4.2838351905    -5.1837830597    -3.0436169373
H     -3.6538611327    -7.8986272658    -2.4769214244
H     -6.0021847789    -8.6955687626    -2.3222491168
C     -5.7921055360    -7.7329117619    -2.8234949767
H     -4.0830790473    -4.2268770733    -3.5594127921
C     -4.3363020472    -7.7131172560    -3.3275058286
O     -7.6848819081    -5.5942015954    -0.3347999989
C     -3.9673000795    -6.3651688863    -3.9854155389
H     -6.4285681460    -5.0881102568    -3.4119319724
C      0.8918698726    -4.9837528299    -1.2314817235
C      1.7219572132    -5.3226671565    -0.1667823936
C      0.1562799529    -5.9736031870    -1.9042823785
C      1.8517078227    -6.6631652600     0.2341684531
C      0.2800976972    -7.3159720292    -1.4997539230
C      1.1281133676    -7.6589094247    -0.4482696254
O     -1.5715736409    -6.5744155181    -3.4027776229
C      2.7524125640    -6.9890291814     1.3865925441
O      3.2529733324    -6.1475788496     2.1201925863
C     -0.7460964474    -5.5695579871    -3.0340441067
H      2.2836758837    -4.5513904993     0.3685311597
H      0.7967066965    -3.9420850978    -1.5526076719
H      1.2287208502    -8.7034803196    -0.1426216486
H     -0.2915641640    -8.0895514791    -2.0188274255
O     -0.7293146983    -4.4557619413    -3.5446689099
H     -6.4850162605    -7.6645729087    -3.6862759941
H     -4.1773708671    -8.5375014725    -4.0475151033
O      4.2550717329     4.1866004017     0.8812905696
H      3.4428291772     4.6879684117     0.5702603213
H      8.4608096026    13.5258948851    -0.4128623030
C     -2.5225410047    -6.3380929990    -4.4975515086
H     -4.5888460131    -6.2480158404    -4.8986274685
H     -2.2805295782    -5.3739787059    -4.9705242939
H     -2.3418460375    -7.1591683154    -5.2101424230
C      3.8682586749     7.6420106749     0.8275261241
H      3.7658948553     7.1183073935     1.7933556713
H      4.3928932962     6.9824891402     0.1145179356
H      3.9541171834     9.6287255184     1.6234898935
