167
petg petg_r_25950 from petg_r_25950.mcos (coord_rad bohr -> angstrom)
C      0.0317459517    -7.3407646008    -0.6258951329
C     -0.4156569182    -6.3105795151     0.3649811767
C     -1.3422837704    -6.6742517607     1.3569342022
C     -1.7708521969    -5.7402859859     2.2960261981
C     -1.2936491880    -4.4192759331     2.2523858100
C     -1.7777132523    -3.4356807018     3.2726563070
O     -2.4357224446    -3.7313061607     4.2611484935
O     -1.3934589784    -2.1692183555     2.9723875243
C     -0.3724287012    -4.0509963167     1.2540545733
C      0.0696817087    -4.9901897772     0.3253666602
O     -0.4743990520    -8.4488960459    -0.7445018182
H     -1.7184515837    -7.7013488293     1.3814734363
H     -2.4847064383    -6.0220398167     3.0758643464
H     -0.0004189168    -3.0241900755     1.2154077891
H      0.7921093981    -4.7038605100    -0.4430391720
C     -1.7432982051    -1.1184589045     3.9160687054
C     -3.1720789839    -0.6154379616     3.7387832612
H     -1.0127882651    -0.3230527224     3.7220926054
H     -1.6352356761    -1.4892568883     4.9481940808
O     -3.4790826668    -0.2271089106     2.3633505480
H     -3.9047938775    -1.4021048891     3.9593304018
H     -3.3277396386     0.2453320224     4.4088346408
H      2.0453462861    -7.1222569207    -3.1491135376
C      1.5655323872    -7.7891781067    -2.4213647194
C      6.8026668314    -6.4119152823    -1.7456076291
C      7.8946777349    -5.9442045470    -1.0175452114
C      5.8311659607    -7.2247731164    -1.1387572473
C      8.0448796776    -6.3090109773     0.3340446519
H      2.0793492713    -9.4662081973    -1.1297607475
O      3.6840287246    -8.2234855240    -1.1934058330
C      9.2488539468    -5.8963979240     1.1287034895
C      5.9681674006    -7.5687084864     0.2197643108
O      9.5753326020    -6.4286340800     2.1840542979
C      4.6868349683    -7.7297786660    -1.9619849560
C      7.0747994957    -7.1242955259     0.9390848616
H      6.6896017863    -6.1549787074    -2.8035418208
H      8.6441324048    -5.3080136571    -1.4951031833
O      1.0669269698    -6.8979601532    -1.3826125404
C      2.5489982048    -8.8222856310    -1.8849373216
O      4.6587775299    -7.7080833146    -3.1858657652
H      5.2149882796    -8.1978487587     0.7003056640
H      7.2069268765    -7.4097474210     1.9875653490
H      0.7233460606    -8.3207661305    -2.8929541633
H      2.9089527166    -9.4330101650    -2.7286976189
H     -6.7435975814     3.8795972071    -4.8749099612
C     -7.1943368291     2.9759749790    -5.3064834952
C     -3.1566382161     2.5198174504    -1.5198536134
C     -2.7503939147     2.2192481390    -0.2227421969
C     -4.2681551459     1.8764691310    -2.0893258116
C     -3.4461761974     1.2543108162     0.5261107948
H     -6.7240806847     0.8656349815    -5.5659560504
O     -5.7557644394     1.5319643477    -3.9037435526
C     -2.9969769705     0.9469500834     1.9167166974
C     -4.9668045108     0.9126157202    -1.3376037536
O     -2.2758432191     1.6751237281     2.6001008821
C     -4.6784827255     2.2418151096    -3.4830990494
C     -4.5535336428     0.5987437457    -0.0449662276
H     -2.6149842095     3.2631085615    -2.1126722008
H     -1.8745987644     2.7162017068     0.2087510479
O     -8.3927289691     2.7422883073    -4.5103783237
C     -6.2320733122     1.7971128907    -5.2558476543
O     -4.1053766254     3.0787167808    -4.1681137521
H     -5.8343020264     0.4108986373    -1.7734562915
H     -5.0948894538    -0.1527608651     0.5356651189
H     -7.4749075925     3.1594405184    -6.3557820711
H     -5.3760044149     2.0086344352    -5.9160090119
H      6.9640157659     8.9252577291     0.3724415806
C      7.6867217273     8.5826184036     1.1305460446
C      3.6736143632     5.8494516285     1.5589999310
C      2.5674564768     5.0560982668     1.2663892282
C      3.9097739857     6.2624685555     2.8841263995
C      1.6794701113     4.6581277029     2.2792970770
H      7.6951346008     7.7659279572     3.1456171728
O      5.8674503332     7.4016543174     2.1795837537
C      0.5066883612     3.7969739302     1.9194820519
C      3.0216143218     5.8655627107     3.8972061924
O      0.2841254772     3.4064881293     0.7759079061
C      5.0789980030     7.1254954254     3.2465025167
C      1.9163360390     5.0705190727     3.6038126980
H      4.3585198358     6.1534142216     0.7637583361
H      2.3732393489     4.7292368398     0.2401669837
O      8.3564367923     7.3787250150     0.6526769418
C      7.0091369140     8.2677188353     2.4441301178
O      5.3021505496     7.5438282943     4.3753453899
H      3.2138810208     6.1932006781     4.9235776805
H      1.2312863274     4.7646549104     4.3985705405
H      8.4359313804     9.3749830599     1.2901818557
H      6.6551459559     9.2053051777     2.9030196229
C    -12.8148183633     0.9954128560    -3.8644027127
C    -11.6984597232     1.1747290673    -4.6754975031
C    -12.8505860307     1.5420342239    -2.5707464152
C    -10.5921950864     1.9069055674    -4.2119008428
O    -13.9239818753     1.8227262348    -0.4771233768
C     -9.4104569688     2.0772229549    -5.1149922892
C    -11.7431867652     2.2745924541    -2.1035380117
O     -9.3636370113     1.6672470396    -6.2676464332
C    -14.0729743796     1.3290750917    -1.7262328352
C    -10.6253313636     2.4557149722    -2.9160068904
H    -13.6782976619     0.4274466509    -4.2234088024
H    -11.6684007043     0.7496422480    -5.6831052923
O    -15.0875968911     0.7742147242    -2.1323139727
H    -11.7659047754     2.7025368027    -1.0980700446
H     -9.7684234648     3.0270193376    -2.5500643051
C    -15.0024788840     0.3534415467     1.2175446754
C    -13.7360288047     0.2276423202     2.0901160182
C    -13.7356569718    -1.0853189570     2.8927838768
H    -13.6960388385     1.0873564589     2.7894373575
H    -12.8315578284     0.2899874535     1.4594296487
C    -14.9934587525    -1.2137338178     3.7742145100
H    -12.8289068909    -1.1529479222     3.5190037356
H    -13.7022400668    -1.9444556587     2.1919293901
C    -16.2661367012    -1.0820407106     2.9102812750
C    -16.2715059411     0.2233474134     2.0902012902
H    -17.1664998743    -1.1260151668     3.5505655528
H    -16.3253295619    -1.9473983096     2.2198023163
H    -16.3278424398     1.0888829506     2.7808042037
H    -17.1742872419     0.2657741974     1.4534710655
C    -15.0252417615    -2.5256603913     4.5751911593
H    -14.9914539955    -0.3775922546     4.5071461375
O    -13.9203624664    -2.6718545065     5.4930027667
H    -14.9529211993    -3.3890705939     3.8891677052
H    -15.9897777549    -2.6051250557     5.1179832784
H     10.9941311962    -4.3674097771     2.2849749261
H     12.4686501738    -0.5131881588     0.8161099923
H     10.7397901066    -1.8799511451     1.9939158167
H     12.7136909823    -3.0679849799     1.0592462810
H     11.8995518985    -5.3362439403     1.0807132902
C     11.1897380071    -4.5005048395     1.2081547600
C     11.7241772768    -3.2163038270     0.5761405755
C     10.8617944073    -1.9778615585     0.8992683610
C     11.4900713782    -0.6946744355     0.3262722276
H     13.5799830464    -1.9030419666    -1.1262845767
H     12.6223768406    -4.1916301553    -1.1604628665
C     11.9549064843    -3.3365598951    -0.9449850906
H     10.8538171458     0.1764401135     0.5588608862
C     12.5584211813    -2.0472948359    -1.5328215780
O      9.9343604782    -4.8878652734     0.5503022668
C     11.7077061114    -0.7997059111    -1.1965178367
H      9.8483019257    -2.1157800353     0.4758361577
C     11.4906013730     5.2003496958    -2.2529063458
C     10.7885171562     6.3400388689    -1.8745113817
C     11.2385315795     3.9685035958    -1.6259638834
C      9.8308870433     6.2767968627    -0.8481816062
C     10.2642796476     3.8978790758    -0.6128377323
C      9.5721683900     5.0436961428    -0.2213990453
O     11.5955946154     1.6217600385    -1.5026002847
C      9.1343813711     7.5401915760    -0.4454830958
O      9.2631560270     8.6100527317    -1.0269650352
C     12.0553363476     2.7768004539    -2.0304991012
H     10.9809162774     7.3007141115    -2.3612752699
H     12.2516617042     5.2493576234    -3.0373954401
H      8.8271368349     4.9889130954     0.5766996213
H     10.0628614124     2.9410238240    -0.1238142148
O     13.0412545133     2.8486359576    -2.7557839978
H     10.9908758366    -3.5533510019    -1.4415749334
H     12.6653371729    -2.1482543383    -2.6284115344
O     -0.2740935955     3.4916296063     2.9704379770
H     -1.0141685000     2.8871704956     2.6731120827
H    -13.9869938619    -1.9480909780     6.1421719588
C     12.3995220259     0.4274799301    -1.7862938370
H     10.7195148753    -0.9079635873    -1.6881554347
H     13.3981389187     0.5774375947    -1.3377658351
H     12.5183964133     0.3366142796    -2.8789296176
C    -15.0578249854     1.6739722045     0.4420817794
H    -15.0067672492    -0.4734624926     0.4795571280
H    -15.9913677440     1.7549857816    -0.1372786625
H    -14.9646134562     2.5363835583     1.1221289059
