167
petg petg_b_47700 from petg_b_47700.mcos (coord_rad bohr -> angstrom)
C      8.8647307688    -0.2890768623    -2.6542002515
C      8.4959337987     0.2994454602    -1.3275076450
C      9.4612142032     0.8687782834    -0.4746056322
C      9.0740065565     1.4047104027     0.7508820930
C      7.7285978451     1.3842274340     1.1535222218
C      7.3597883814     1.9692935783     2.4817742812
O      8.1711179916     2.4159094543     3.2823558551
O      6.0203984785     1.9453543079     2.6996219177
C      6.7631829288     0.8151320436     0.3006300021
C      7.1505300017     0.2795737401    -0.9249012820
O      8.0518449535    -0.7268699731    -3.4579490052
H     10.5107155858     0.8903138577    -0.7773897554
H      9.8160869818     1.8500023766     1.4208397288
H      5.7137158195     0.7935389011     0.6034554171
H      6.4083710357    -0.1655711414    -1.5948855010
C      5.5508079851     2.4733787617     3.9744585554
C      5.3471359603     3.9817678421     3.9326719687
H      6.2792767468     2.2358881908     4.7657566099
H      4.6058115287     1.9472392257     4.1638346882
O      4.3416258905     4.3762986095     2.9537853031
H      5.0452127995     4.3267451037     4.9342845235
H      6.2620883668     4.5006476458     3.6171730010
H     11.6247298703    -0.3028692558    -4.3274639796
C     10.6732637080    -0.8191811962    -4.1373515056
C     13.8674650631    -5.4224056868    -1.8152316285
C     14.9021137532    -5.6524795079    -0.9139812234
C     13.3854501472    -4.1195756180    -2.0264918766
C     15.4782305149    -4.5854373515    -0.2039346769
H      9.9556588708    -2.8460696571    -3.7644625532
O     11.9495381561    -2.6085361349    -3.1570980356
C     16.5934393902    -4.8749712045     0.7524846181
C     13.9596134069    -3.0491282087    -1.3159293767
O     17.0021360240    -6.0003111101     1.0078242385
C     12.2713394640    -3.9157275359    -3.0071420629
C     14.9967529500    -3.2794624103    -0.4139262477
H     13.4169966500    -6.2507140841    -2.3700709352
H     15.2799103106    -6.6654982071    -0.7470659518
O     10.2056649002    -0.2816641463    -2.8655771472
C     10.8674628260    -2.3227963371    -4.0911396194
O     11.7135445877    -4.8218996875    -3.6126225957
H     13.5871722383    -2.0338902942    -1.4747241891
H     15.4405250482    -2.4455107784     0.1356803296
H      9.9481001390    -0.5786806589    -4.9298182216
H     11.1446295511    -2.6863046260    -5.0949817939
H     -3.9387181219     5.5733721228    -3.2108713610
C     -3.2033975379     5.1828072233    -2.4896766044
C      1.6550273195     5.6946200814     0.0816769108
C      2.5674219707     5.2874106849     1.0516016828
C      0.2721430178     5.6079109595     0.3115303849
C      2.1040353077     4.7879834166     2.2841130849
H     -2.6645160535     7.1719180918    -1.8856271122
O     -1.9673041074     5.8134426289    -0.4401648341
C      3.0468215025     4.3426464822     3.3589351578
C     -0.1912116999     5.1038809826     1.5421911941
O      2.6932282766     3.9897187030     4.4766031709
C     -0.6712937188     6.0545285321    -0.7623347252
C      0.7211841289     4.7036340899     2.5149158978
H      2.0043786105     6.0898425614    -0.8772782189
H      3.6409193083     5.3565628345     0.8607265408
O     -3.6761938680     3.9177439277    -1.9419655929
C     -2.9752918611     6.2295271873    -1.4075166550
O     -0.3172285468     6.5789686994    -1.8103593888
H     -1.2647410611     5.0306709382     1.7313110006
H      0.3719256947     4.3162007951     3.4770610414
H     -2.2678724779     4.9313344808    -3.0066809560
H     -3.8828326478     6.3927677936    -0.8111648746
H     18.0295019735    -4.8323851332     2.8493010859
C     18.1881943321    -3.9127824251     2.2641043718
C     21.2597941491     0.5778566619     1.2675955532
C     21.5529573582     1.7029187820     0.5011800226
C     20.7347094101    -0.5810075736     0.6727931143
C     21.3234281939     1.6836586714    -0.8875747785
H     20.3187434622    -4.1749613040     2.3453050115
O     19.8639686860    -2.7805384174     0.8388832132
C     21.6242015915     2.8681828330    -1.7495263398
C     20.5032997818    -0.5989156018    -0.7164331416
O     21.4382633900     2.9074669974    -2.9587400956
C     20.4346166961    -1.7668568010     1.5374290329
C     20.7984289217     0.5250829853    -1.4832308311
H     21.4360193706     0.5813906065     2.3476344439
H     21.9603991409     2.5995111149     0.9747809937
O     17.1012210889    -3.7449489050     1.3073829730
C     19.5465121109    -3.9945230738     1.5808925300
O     20.6778037422    -1.8190212297     2.7360178040
H     20.0946177301    -1.4953594637    -1.1886120788
H     20.6250847981     0.5215100917    -2.5638388579
H     18.1218862101    -3.0344528525     2.9198106912
H     19.5685612982    -4.7948280192     0.8292363551
C     -4.8175775679     0.2044472826    -0.4930401860
C     -4.4270393129     1.4409834912    -1.0008785226
C     -6.1601416248    -0.0511194130    -0.1702017271
C     -5.3867056405     2.4523088749    -1.2000326070
O     -7.8499891588    -1.4956766316     0.6558831755
C     -5.0138284832     3.7959565881    -1.7449449588
C     -7.1191696419     0.9607759365    -0.3677155518
O     -5.8200369638     4.6844244803    -1.9892387561
C     -6.5332311158    -1.3983029548     0.3755066603
C     -6.7297955111     2.1966444630    -0.8781140389
H     -4.0806391077    -0.5897968392    -0.3369886792
H     -3.3792802091     1.6284137169    -1.2472501972
O     -5.7304299597    -2.3089399494     0.5465031516
H     -8.1667627764     0.7732194459    -0.1199606183
H     -7.4681439882     2.9888110540    -1.0368683123
C     -9.7972885577    -2.6758469227     1.5011269769
C    -10.3411015494    -4.0704146489     1.8841667520
C    -11.8444415997    -4.0210372556     2.2157217080
H     -9.7813965629    -4.4481658520     2.7637960292
H    -10.1608443251    -4.7865872045     1.0617536202
C    -12.1550847775    -2.9904815738     3.3225091418
H    -12.1915135915    -5.0235532645     2.5279413622
H    -12.4128184369    -3.7571834391     1.3039508089
C    -11.5966167339    -1.5997852741     2.9517034377
C    -10.0939920199    -1.6617172587     2.6246335120
H    -11.7726137299    -0.8905384985     3.7817165675
H    -12.1481579824    -1.2083641432     2.0759462579
H     -9.5293326442    -1.9614617929     3.5311575228
H     -9.7269595168    -0.6605231064     2.3391210645
C    -13.6360379397    -2.9537354566     3.6975357846
H    -11.6430259344    -3.3238395818     4.2501616808
O    -14.4138383317    -2.5224488427     2.5297110792
H    -13.8267134221    -2.2419881181     4.5187628994
H    -14.0005127368    -3.9491739614     4.0039703821
H    -26.6064147564    -0.2558364324    -1.4921001667
H    -21.9402433032     0.5528813944    -0.6982555663
H    -24.2089220136     1.5470020605    -0.4631009545
H    -24.0151524933    -0.8923499554     0.0223527570
H    -26.2161160602     0.2986554284     0.1706873326
C    -26.0342164547    -0.5042286394    -0.5732097765
C    -24.5402878124    -0.5680787720    -0.9006514522
C    -24.0153669211     0.8317598299    -1.2837226742
C    -22.5104062300     0.8069254895    -1.6118890523
H    -22.1652085043    -2.0013875036    -1.4673156509
H    -24.5819997095    -2.5818367499    -1.7359976359
C    -24.2238706050    -1.5779969686    -2.0220757903
H    -22.1760189028     1.8137453435    -1.9253420121
C    -22.7197475038    -1.6195188619    -2.3454680617
O    -26.4585980884    -1.7808767644    -0.0447133550
C    -22.1800425214    -0.2209522294    -2.7157256890
H    -24.5790892755     1.2005591591    -2.1650278285
C    -16.4678298565    -1.2975050018    -0.8643856972
C    -15.7675628489    -1.7066109812     0.2681037724
C    -17.8660657815    -1.1700996878    -0.8408560633
C    -16.4635354829    -1.9978756153     1.4571416472
C    -18.5619820874    -1.4611836420     0.3482543025
C    -17.8617113379    -1.8697770488     1.4808810957
O    -19.9171767577    -0.6597123135    -1.9168081697
C    -15.7499781658    -2.4426563913     2.6998557386
O    -16.3195252910    -2.7051628524     3.7538205905
C    -18.5803648353    -0.7276391402    -2.0841850088
H    -14.6794763227    -1.8027377475     0.2376179046
H    -15.9360348568    -1.0686697973    -1.7934759093
H    -18.3935405210    -2.0983788471     2.4100032634
H    -19.6501107035    -1.3655380799     0.3785397774
O    -18.0102215520    -0.4585321394    -3.1362660975
H    -24.7896457633    -1.2858400701    -2.9310824297
H    -22.5288085223    -2.3266150574    -3.1745449230
H    -27.4193861293    -1.7291498110     0.1050282053
O     22.1327274090     3.9154733996    -1.0523146899
H     22.2979043707     4.6399215640    -1.6938745509
C     -8.3070031301    -2.7839550252     1.1866021875
H     -7.7166885289    -3.0194104896     2.0897722943
H     -8.1084130091    -3.5592465306     0.4267452045
H    -10.3151378401    -2.3454244617     0.5777256086
C    -20.6976020588    -0.2362257851    -3.0861644798
H    -20.4941157391    -0.9436047461    -3.9081413650
H    -20.3453422142     0.7647724260    -3.3890716887
H    -22.6941001236     0.1034395498    -3.6455725709
