167
petg petg_b_41220 from petg_b_41220.mcos (coord_rad bohr -> angstrom)
C     -0.7368348540     6.9664641930    -2.3463934595
C      0.7538347709     6.9394944743    -2.5098594433
C      1.5095311649     8.1270339853    -2.5543544816
C      2.8792705434     8.0702636951    -2.7944561805
C      3.5263107325     6.8385614830    -2.9860756739
C      4.9853167888     6.8379623297    -3.3220149804
O      5.6222816632     7.8512240125    -3.5817607599
O      5.5214012868     5.5912249083    -3.3361200676
C      2.7771484442     5.6484797995    -2.9115981096
C      1.4041192552     5.7060925523    -2.6805467573
O     -1.4526747739     5.9782911029    -2.4357493575
H      1.0147685716     9.0913766054    -2.4181569800
H      3.4700828755     8.9894855527    -2.8540141657
H      3.2708585423     4.6842066928    -3.0549454443
H      0.8089619209     4.7881629711    -2.6453678496
C      6.8982535554     5.4898125104    -3.8098987862
C      7.9317406262     5.8074106161    -2.7372571220
H      7.0432805113     6.1874455814    -4.6499951070
H      6.9951681731     4.4554449211    -4.1646093050
O      7.9985156653     4.7961395804    -1.6876885675
H      8.9181053919     5.8946747784    -3.2197304508
H      7.6900759505     6.7405214139    -2.2122612392
H     -3.1502215161     7.5627975703    -2.4948755946
C     -2.6317553009     8.4548050541    -2.1165336167
C     -5.8875212106     5.2817986515     1.0975577876
C     -6.1127232645     4.3044482629     2.0606422949
C     -4.6828612136     6.0054425911     1.0846400135
C     -5.1333174363     4.0208029597     3.0273268969
H     -2.3886421126     9.4961251657    -0.2274980800
O     -3.3158198281     7.7217874948     0.1631137378
C     -5.4328925702     2.9844786309     4.0657518521
C     -3.6963453881     5.7175512786     2.0464960817
O     -6.5376700131     2.4822234057     4.2286012193
C     -4.5103349058     7.0831273128     0.0601775671
C     -3.9176599693     4.7300199007     3.0058669381
H     -6.6490762222     5.5086103900     0.3457799548
H     -7.0554708375     3.7500600987     2.0814342049
O     -1.1918407753     8.2239315990    -2.1181386400
C     -3.1245650475     8.8560348810    -0.7347393613
O     -5.3622136542     7.3732184019    -0.7701028907
H     -2.7577835741     6.2778871501     2.0420850868
H     -3.1518793714     4.5114359478     3.7546736672
H     -2.7905330314     9.2995523159    -2.8050582455
H     -4.0789333737     9.3945802513    -0.8413811955
H      9.0439885295    -3.3532204333     4.6657948205
C      8.8079620307    -2.6940724010     3.8143160096
C      8.6399582515     2.3114793480     1.5894015977
C      8.4607316075     3.1764679822     0.5125571832
C      9.2275448765     1.0486931396     1.4074782618
C      8.8852336425     2.7910741074    -0.7734286510
H     10.5558015363    -1.5064840433     4.1718988420
O      9.8307829941    -1.0869462056     2.2424603841
C      8.7665451561     3.7083608138    -1.9503997701
C      9.6357161019     0.6563986311     0.1180184487
O      9.3131709858     3.5078415697    -3.0276099005
C      9.4162143265     0.1571777130     2.5954321658
C      9.4701428483     1.5271346144    -0.9555623769
H      8.3290894535     2.6071062922     2.5962810344
H      8.0036334197     4.1573275359     0.6640595245
O      8.2813211255    -3.5350151134     2.7401845155
C     10.0813791262    -2.0281532506     3.3259791216
O      9.2242114398     0.5058793676     3.7528044284
H     10.0901870220    -0.3253791579    -0.0343279725
H      9.8006873170     1.2403733047    -1.9586882160
H      8.0462086828    -1.9626432570     4.1154589362
H     10.7783397355    -2.7630876407     2.8992022919
H     -5.5322911076     1.9080016769     6.3723164049
C     -4.5570107734     1.7154192050     5.8976783282
C      0.0811962531    -1.3067696433     5.9036539927
C      1.2916880155    -1.6812761419     5.3263240776
C     -1.0089393766    -0.9257296078     5.1043813309
C      1.4315461503    -1.6819239081     3.9258292599
H     -4.7728564574    -0.3866314220     6.2705130483
O     -3.2227992466    -0.1048396510     4.8798519000
C      2.7216559339    -2.0711346845     3.2677945685
C     -0.8687609001    -0.9246288314     3.7028750975
O      2.8918900622    -2.0495029395     2.0506824902
C     -2.2911657907    -0.5333114815     5.7693533936
C      0.3414921083    -1.3016306211     3.1262582356
H     -0.0380866002    -1.3047024338     6.9915334509
H      2.1354222636    -1.9740765530     5.9560891546
O     -4.3458919870     2.6688435506     4.8137536632
C     -4.5228934212     0.2694513380     5.4217703730
O     -2.4826625849    -0.5940605612     6.9771461598
H     -1.7111628855    -0.6301146300     3.0725140715
H      0.4621576341    -1.3063878660     2.0384131642
H     -3.7472467336     1.9216141053     6.6100944449
H     -5.2291933138     0.1026028913     4.5981154595
C      7.0039181131    -6.3122953415    -0.0628444009
C      7.4183070205    -5.4597613974     0.9565186611
C      5.7265979817    -6.1840066369    -0.6321499760
C      6.5433783809    -4.4675687819     1.4402482265
O      4.1239612660    -6.8096213681    -2.2652537151
C      6.9498546149    -3.5535531807     2.5478309262
C      4.8568759702    -5.1852593175    -0.1547443476
O      6.1662020025    -2.8770782580     3.2160691357
C      5.3229217133    -7.1220423238    -1.7328095638
C      5.2608949051    -4.3428437508     0.8790052671
H      7.6704340889    -7.0955702561    -0.4373841026
H      8.4163959092    -5.5641859832     1.3888817378
O      6.0114421957    -8.0652747134    -2.1062850265
H      3.8625164035    -5.0758623826    -0.5947923511
H      4.5803205485    -3.5676838166     1.2505621145
C      2.3266458936    -7.1341060758    -3.8837704530
C      1.2012058854    -7.1354399590    -2.8268524330
C     -0.1261356163    -6.6219857880    -3.4128569406
H      1.5004618315    -6.4942974506    -1.9761860443
H      1.0652061179    -8.1561626112    -2.4236236675
C      0.0291176883    -5.2177919899    -4.0317028321
H     -0.9052102976    -6.6079764690    -2.6308265970
H     -0.4779549199    -7.3193527761    -4.2004823211
C      1.1439356324    -5.2256066105    -5.1014670048
C      2.4773212562    -5.7382724013    -4.5260443787
H      1.2788270207    -4.2096150869    -5.5153821461
H      0.8323248819    -5.8742443260    -5.9451695368
H      2.8465717757    -5.0259022881    -3.7642940205
H      3.2407322515    -5.7733208903    -5.3253645145
C     -1.2671662974    -4.7053727233    -4.6553542910
H      0.3235344265    -4.5072609670    -3.2326366995
O     -2.2539402903    -4.5205631197    -3.5868080074
H     -1.6763004077    -5.4214294746    -5.3899807431
H     -1.1186955522    -3.7343758314    -5.1584049639
H    -14.5915224813    -0.8775465625    -1.4156062969
H    -10.6188391363    -3.5462951319    -1.1998530391
H    -13.0710921482    -3.6047488136    -1.6286454722
H    -11.8423195700    -1.6427692549    -2.5622539430
H    -14.3055223637    -1.8615110747    -2.8809108813
C    -13.8855976042    -1.0558370659    -2.2540536312
C    -12.5200612509    -1.4926088769    -1.6960650344
C    -12.6590197204    -2.8360882269    -0.9489852934
C    -11.3137806362    -3.3145589043    -0.3706870065
H     -9.8116042345    -1.0013109496    -1.0156922129
H    -11.7519208098     0.5202740611    -1.3100145646
C    -11.8944471425    -0.4328193130    -0.7673490567
H    -11.4590744119    -4.2542908094     0.1945306818
C    -10.5435582540    -0.8972312651    -0.1926557638
O    -13.8224119540     0.1044953247    -3.1119903065
C    -10.6730825503    -2.2482861129     0.5435504051
H    -13.3920105344    -2.7167196712    -0.1249567286
C     -4.9101218875    -3.9898326847    -0.4391991964
C     -4.0113944278    -4.1774173066    -1.4867265735
C     -6.2207901973    -3.5489652508    -0.6836200545
C     -4.4149466261    -3.9243644012    -2.8117702809
C     -6.6244748990    -3.2974428937    -2.0090302791
C     -5.7261347070    -3.4851786113    -3.0567859977
O     -8.3781895844    -2.9387686083     0.0897144382
C     -3.4801244517    -4.1060472980    -3.9710395682
O     -3.7938121471    -3.8970761239    -5.1378008552
C     -7.1540217744    -3.3543801883     0.4752004482
H     -2.9935894841    -4.5195222353    -1.2840922770
H     -4.6063414659    -4.1827204459     0.5946457958
H     -6.0296925021    -3.2911659599    -4.0904351396
H     -7.6419906611    -2.9539824583    -2.2111350198
O     -6.8370070086    -3.5503437852     1.6437003632
H    -12.5992635336    -0.2245130881     0.0641311987
H    -10.1418496335    -0.1309555063     0.4964115015
H    -13.6302106029     0.8765988730    -2.5510752347
O      3.6708105418    -2.4426866004     4.1422870158
H      4.5205057748    -2.6530112595     3.6515988676
C      3.6484981896    -7.6814760120    -3.3471380063
H      3.5283069283    -8.6987763878    -2.9369126846
H      4.4229309347    -7.7087972871    -4.1324057419
H      2.0381101827    -7.8469267010    -4.6853605987
C     -9.3550574373    -2.7128244613     1.1620848704
H     -8.9411709501    -1.9540033339     1.8478989535
H     -9.4796929426    -3.6579758021     1.7178024415
H    -11.3482617938    -2.0964195242     1.4125043913
