48
evoh config_4460 from config_4460.mcos (coord_rad bohr -> angstrom)
C      4.8956565060     2.2216507907    -0.4374803733
C      4.8014638150     0.7579479430     0.0349262576
C      3.4684426161     0.0866284598    -0.3119101990
C      3.2971426284    -1.3121589146     0.3093177029
C      2.0338965290    -2.0617540605    -0.1578612564
C      0.6985957507    -1.4532739232     0.3144496453
H      2.0738257302    -3.1097094554     0.1973392277
H      2.0196588421    -2.0966112247    -1.2641296089
C     -0.4965779800    -2.2548627057    -0.2187000506
C     -1.8775982889    -1.6814765515     0.1448545414
C     -2.2100211041    -0.3610220479    -0.5586988101
C     -3.5674345562     0.2504425596    -0.1592617676
C     -3.7586302781     1.6534546401    -0.7497094266
H     -3.6004712994     0.3142274361     0.9520960294
O     -4.6638022731    -0.5776727046    -0.6154858632
C     -5.0669394372     2.3559019687    -0.3315131870
H     -3.7214738129     1.5639369567    -1.8529295880
H     -2.8937441774     2.2754732684    -0.4476002478
C      3.9778958773     3.1882931209     0.3284560202
H      4.1601141397     3.1326864604     1.4164224664
H      2.9107720510     2.9709130523     0.1550433306
H      4.1564892493     4.2307740883     0.0142712306
C     -5.1169879695     2.7584197658     1.1517677702
H     -5.9206571180     1.6965106363    -0.5702394660
H     -5.1917628372     3.2592626279    -0.9571961004
H     -6.0527529055     3.2942639689     1.3877125822
H     -4.2746205999     3.4243586649     1.4116894580
H     -5.0646900796     1.8806500385     1.8196419678
H     -1.9309278023    -1.5342117645     1.2403076047
O     -2.9133733717    -2.6396452839    -0.2513629347
H      0.6275943050    -0.4048346340    -0.0407108653
O      0.5911301694    -1.4624324797     1.7623324670
H      4.9413370825     0.7313013182     1.1385071530
O      5.8407014157    -0.0397002083    -0.5935857833
H     -2.1877191254    -0.5142306084    -1.6558807401
H     -1.4160212161     0.3679490393    -0.3133226863
H     -0.4278399722    -3.2828320577     0.1871600774
H     -0.4163429075    -2.3318915456    -1.3184696742
H      3.3963478876     0.0186591026    -1.4154821210
H      2.6509292122     0.7539912284     0.0164384199
H      4.6843416541     2.2591657121    -1.5237267012
H      5.9462225572     2.5482222642    -0.3139175261
H     -4.3592480849    -1.5027377615    -0.4641737661
H     -2.8849486077    -3.3892682292     0.3710654095
H      6.6983796804     0.3352743302    -0.3220670472
H      1.2798045711    -0.8699299651     2.1142392652
H      3.3057776544    -1.2322365628     1.4153333834
H      4.1809537557    -1.9226672424     0.0555742438
