48
evoh config_7530 from config_7530.mcos (coord_rad bohr -> angstrom)
C      5.2096889372     1.1905786818    -0.9205881535
C      5.1436791426     0.1573214796     0.2166104285
C      4.0040606009    -0.8681353135     0.0562921344
C      2.5889179820    -0.2762190283     0.1842655153
C      1.4966866462    -1.3595071980     0.1510133009
C      0.0672886313    -0.8168767251     0.3308178367
H      1.6900160637    -2.1124617848     0.9425871292
H      1.5418360689    -1.9031303020    -0.8125583684
C     -0.9864920270    -1.9288611812     0.1669804336
C     -2.4542734794    -1.4605941589     0.2367597666
C     -2.8646375779    -0.5985148435    -0.9690628822
C     -4.3154512686    -0.0966425612    -0.9322649221
C     -4.6612714508     0.8447967296     0.2395047083
H     -4.9833607511    -0.9780846247    -0.8649523393
O     -4.5280604661     0.5569187774    -2.2142138471
C     -3.8004438123     2.1142855432     0.3614620621
H     -4.6109264553     0.2634025320     1.1807803025
H     -5.7256149255     1.1368572138     0.1286104703
C      6.2500860306     2.2979111513    -0.6948127651
H      5.9948972341     2.9085081921     0.1898455200
H      6.3058675801     2.9736111085    -1.5648100472
H      7.2535387524     1.8713559085    -0.5313927232
C     -4.3169626144     3.0665484900     1.4518664898
H     -3.7830282872     2.6349307220    -0.6134769105
H     -2.7534675593     1.8383262823     0.5847094227
H     -5.3553512078     3.3812402555     1.2456248250
H     -3.6967755072     3.9772001942     1.5189849766
H     -4.3074219815     2.5826853655     2.4455927885
H     -2.5981375595    -0.8935188848     1.1720702007
O     -3.3298892809    -2.6097175111     0.3803238611
H     -0.1082378362    -0.0197108470    -0.4147726946
O     -0.0886427771    -0.1397392248     1.6045789410
H      5.0149904318     0.6860963618     1.1810035467
O      6.4146421460    -0.5324284677     0.3626093236
H     -2.7330442917    -1.1943914396    -1.8931975688
H     -2.1840873770     0.2678613360    -1.0546633697
H     -0.8354836809    -2.6799864766     0.9668856550
H     -0.8149407113    -2.4455195174    -0.7977474533
H      4.1471390111    -1.6417099794     0.8339456395
H      4.1162702021    -1.3793206535    -0.9221257268
H      4.2089959650     1.6428066566    -1.0482834203
H      5.4241171859     0.6487425919    -1.8641974571
H     -5.4609829231     0.8395400674    -2.2410421512
H     -3.2365337940    -3.1482463750    -0.4285159736
H      6.5877823104    -0.9921907291    -0.4808440921
H      0.0812721926    -0.7994714875     2.3040701066
H      2.4015715224     0.4467088703    -0.6316136321
H      2.5094489095     0.2910544571     1.1300333963
