48
evoh config_2200 from config_2200.mcos (coord_rad bohr -> angstrom)
C      6.2864296323     0.7147936202    -0.2760951262
C      4.7535612184     0.8538171755    -0.2547490578
C      4.0673040042    -0.3751136517     0.3513108310
C      2.5325771839    -0.3646550714     0.2353414511
C      1.8913053674    -1.5987338283     0.8951452984
C      0.3498629491    -1.5790159650     0.9331105469
H      2.2414001880    -1.6749099056     1.9417947859
H      2.2249545687    -2.5232521584     0.3808221828
C     -0.2865984049    -1.6927004854    -0.4625819287
C     -1.8151261375    -1.5513659713    -0.4923548934
C     -2.2961009057    -0.1042654160    -0.2772486569
C     -3.8147009536     0.0413475492    -0.1184314279
C     -4.2422075453     1.4860556120     0.1806604571
H     -4.1572694635    -0.6189825861     0.7060483072
O     -4.4180360871    -0.4357285247    -1.3665511152
C     -5.7513864031     1.6651185555     0.4211566619
H     -3.9145584921     2.1298895818    -0.6591752465
H     -3.6880839185     1.8234196799     1.0782839476
C      7.0127080395     1.8963876215    -0.9369914891
H      8.1051199714     1.7473646135    -0.9220124063
H      6.8130105118     2.8472906579    -0.4116214250
H      6.7039828581     2.0192498015    -1.9906865017
C     -6.1296904552     3.1196494271     0.7394682455
H     -6.0696271070     1.0066020763     1.2528031728
H     -6.3127871280     1.3320933926    -0.4723190035
H     -5.8466766846     3.7941113763    -0.0878691278
H     -5.6169848795     3.4754187494     1.6511790570
H     -7.2159226083     3.2268151844     0.9028578325
H     -2.2424903213    -2.1904213200     0.3094518459
O     -2.2492516405    -2.0485198714    -1.7823118001
H      0.0221109811    -0.6443711158     1.4241852483
O     -0.1425195155    -2.6249896245     1.8118137807
H      4.3921304879     0.9901066010    -1.2987221449
O      4.3375083843     2.0015287757     0.5346885688
H     -1.9535152952     0.5186387090    -1.1270143574
H     -1.8290132438     0.3047505257     0.6372617588
H     -0.0296293842    -2.6854414917    -0.8810848381
H      0.1555694661    -0.9398339847    -1.1415172258
H      4.3640140328    -0.4488940013     1.4164785407
H      4.4702389973    -1.2739087496    -0.1529912889
H      6.5333935314    -0.2187878983    -0.8155964493
H      6.6398197544     0.5866956128     0.7658457902
H     -5.3527580018    -0.6478514766    -1.1926161134
H     -3.1674679405    -1.7046434630    -1.8865527543
H      4.6422650481     2.8023321447     0.0714806737
H      0.1270086281    -3.4781363637     1.4216421297
H      2.2543832735    -0.3155924299    -0.8341763744
H      2.1381475033     0.5540071644     0.7062590384
