48
evoh config_3880 from config_3880.mcos (coord_rad bohr -> angstrom)
C      6.7214762629     0.7829360500    -0.3613353094
C      5.3662885063     0.8081618506     0.3715753664
C      4.3011790271    -0.0781349103    -0.2816157933
C      2.8965854647     0.0779980509     0.3263499129
C      1.8700409601    -0.8730971347    -0.3113606271
C      0.4447655325    -0.7340242513     0.2550950736
H      2.1982058175    -1.9230943343    -0.1813958718
H      1.8214666529    -0.6833696060    -1.4015030684
C     -0.5387694780    -1.6709978199    -0.4580475663
C     -2.0038913288    -1.5393169963    -0.0058731099
C     -2.6685969426    -0.2218378372    -0.4199263889
C     -4.1139527084    -0.0510983282     0.0865669824
C     -4.6613628611     1.3541317272    -0.1878864161
H     -4.1182547421    -0.2217588662     1.1886447108
O     -4.9997866928    -1.0082653765    -0.5419538566
C     -6.0604127796     1.6058854560     0.4005375148
H     -4.6811238178     1.5127647026    -1.2847815792
H     -3.9486945188     2.0910814369     0.2307653828
C      6.7032572374     1.4714324852    -1.7357909021
H      6.0544903892     0.9433654239    -2.4543189777
H      7.7166156993     1.5060203606    -2.1708335796
H      6.3397194192     2.5112919200    -1.6554486397
C     -6.5918006653     3.0116180271     0.0825951741
H     -6.0222021639     1.4609478877     1.4980587505
H     -6.7577068471     0.8423087659     0.0123963046
H     -6.6668783496     3.1714683425    -1.0077904433
H     -5.9254282548     3.7944587124     0.4883887742
H     -7.5954444468     3.1721274147     0.5136549691
H     -2.0527006136    -1.6424703991     1.0947572497
O     -2.7924478221    -2.6142592685    -0.6147722812
H      0.1170094375     0.3196182544     0.1302311057
O      0.3918673580    -1.0740924489     1.6658937462
H      4.9951737539     1.8566683307     0.3961654108
O      5.5225266241     0.3296746481     1.7348182866
H     -2.6564575871    -0.1376444128    -1.5247668151
H     -2.0610293769     0.6104688248    -0.0205317552
H     -0.2108518374    -2.7132794244    -0.2784481111
H     -0.4801021535    -1.4928809417    -1.5472411144
H      4.6352208888    -1.1313040197    -0.1992596838
H      4.2598465221     0.1581778536    -1.3609077637
H      7.0566060024    -0.2681568626    -0.4545708793
H      7.4637142964     1.2894542774     0.2853421621
H     -4.4741580905    -1.8405871280    -0.5942310298
H     -2.5667679494    -3.4477687868    -0.1626234717
H      6.1482216630     0.9282178393     2.1824313777
H      0.9237472599    -0.4148386020     2.1471144129
H      2.5575917914     1.1259659925     0.1988800088
H      2.9640580550    -0.1036516028     1.4146315387
