48
evoh config_8390 from config_8390.mcos (coord_rad bohr -> angstrom)
C     -4.7738653831    -1.8356304498     0.2026030716
C     -4.2593450081    -0.5127036699    -0.3970319445
C     -3.1158810423     0.1199268231     0.4028521927
C     -2.7389367856     1.5352553306    -0.0714902762
C     -1.6171001909     2.1999004378     0.7531174576
C     -0.2232580023     1.5486318205     0.6378072743
H     -1.9052649908     2.1908575454     1.8236882687
H     -1.5207661101     3.2647895041     0.4673190670
C      0.3977328838     1.7184887819    -0.7528993903
C      1.7860403057     1.0722420268    -0.9436522376
C      1.7537740015    -0.4589779251    -0.8773258204
C      3.1179333659    -1.1438914389    -1.0952313017
C      4.2155006617    -0.7633305279    -0.0801359435
H      3.4812449789    -0.8782481148    -2.1014923188
O      2.9335021203    -2.5843442821    -1.1582186598
C      3.8930623043    -1.0454215198     1.3986446737
H      4.4516339849     0.3110213360    -0.2061693911
H      5.1316438140    -1.3158281987    -0.3653787825
C     -5.5295770566    -1.6688129307     1.5308233465
H     -4.8731430155    -1.2991157217     2.3360617030
H     -5.9518982835    -2.6314840879     1.8658870894
H     -6.3670200881    -0.9563658750     1.4257212114
C      5.0876891754    -0.7486342702     2.3199168098
H      3.5954833445    -2.1046616378     1.5248604339
H      3.0253254872    -0.4399732362     1.7193566125
H      5.9649342417    -1.3583977644     2.0408822875
H      4.8475627364    -0.9656881966     3.3750323303
H      5.3859422677     0.3135392594     2.2560612855
H      2.4706576251     1.4638241944    -0.1675379976
O      2.3045041711     1.4174638884    -2.2570210968
H     -0.2995665734     0.4701403350     0.8807151458
O      0.6928924129     2.1745180680     1.5769554166
H     -5.1054593445     0.2083566859    -0.4447220114
O     -3.7501134967    -0.7333647881    -1.7401698458
H      1.0551833449    -0.8343494088    -1.6486740372
H      1.3444902261    -0.7630182682     0.1036860744
H      0.4876877236     2.8043521346    -0.9529283984
H     -0.2878307597     1.3038008723    -1.5137366301
H     -2.2480928534    -0.5648079666     0.3406024917
H     -3.4103682219     0.1628937484     1.4676324074
H     -3.9191052103    -2.5288822793     0.3231912635
H     -5.4496404202    -2.3020539524    -0.5401350400
H      2.5459980794    -2.8679523188    -0.3095479881
H      2.3982775084     2.3871377823    -2.2867438052
H     -4.4854627246    -1.0844855373    -2.2750136121
H      0.3312737353     2.0353416469     2.4714902906
H     -3.6387075848     2.1782301312    -0.0105495979
H     -2.4639099538     1.5045893690    -1.1399123385
