48
evoh config_5540 from config_5540.mcos (coord_rad bohr -> angstrom)
C      6.8411382659     0.1950524225    -0.8945977838
C      5.5746491228     0.5216485835    -0.0833749114
C      4.3285663722    -0.1923273246    -0.6374867785
C      3.0125764580     0.2306695246     0.0341621046
C      1.8031765107    -0.5660649235    -0.4832110953
C      0.4723536650    -0.1979910376     0.1868532480
H      1.9784364919    -1.6529178652    -0.3445319551
H      1.6895204168    -0.4096508326    -1.5733933174
C     -0.7354930745    -0.8957460282    -0.4636160372
C     -2.0979610895    -0.4642689708     0.1135022849
C     -3.2651272559    -1.1077844456    -0.6466883424
C     -4.6676987207    -0.7111591293    -0.1427982616
C     -5.0186268302     0.7649850648    -0.3893693255
H     -4.7292924862    -0.9261020964     0.9383736965
O     -5.6635435177    -1.5881149216    -0.7363580789
C     -6.3466043316     1.2127225265     0.2440836674
H     -5.0458456833     0.9387610499    -1.4854539785
H     -4.1986827091     1.3991799940     0.0006151706
C      8.0801369860     0.9928073181    -0.4628692469
H      7.9368819572     2.0745957856    -0.6353603744
H      8.9729430810     0.6773106732    -1.0283574252
H      8.2896496367     0.8479313821     0.6099305367
C     -6.6913886926     2.6757097173    -0.0718022942
H     -6.2890600430     1.0720415273     1.3411627671
H     -7.1574734237     0.5504513461    -0.1095333640
H     -7.6480067806     2.9744237316     0.3910838898
H     -6.7820261770     2.8370524115    -1.1608483664
H     -5.9108005030     3.3628375398     0.3023405938
H     -2.1704606289     0.6425485488     0.0263636361
O     -2.2188803270    -0.8360563683     1.5062844399
H      0.3276245669     0.8981531055     0.1370907765
O      0.5151286017    -0.4733833685     1.6259845917
H      5.4038352719     1.6161318793    -0.1035009960
O      5.7628630619     0.2274439305     1.3264662421
H     -3.1732515355    -2.2068226285    -0.5650071809
H     -3.1774377988    -0.8457226664    -1.7196970076
H     -0.6284670349    -1.9947860656    -0.3634992124
H     -0.7236483054    -0.6614300238    -1.5445581636
H      4.4736501903    -1.2867441756    -0.5234738493
H      4.2723362218     0.0010251838    -1.7264987225
H      6.6238968586     0.3846268386    -1.9626382685
H      7.0391436054    -0.8927866929    -0.8079668005
H     -5.6616763635    -1.4147888712    -1.6969545195
H     -1.3257971885    -0.6719586760     1.8915600033
H      5.9143870143    -0.7344477401     1.3979319800
H      0.8548019252    -1.3826320626     1.7366276380
H      2.8400845140     1.3107036190    -0.1445176694
H      3.1020080442     0.1043818171     1.1269695559
