48
evoh config_20 from config_20.mcos (coord_rad bohr -> angstrom)
C     -6.6265181245    -0.8468636171    -0.9067328572
C     -5.2687165819    -1.1124391001    -0.2214232244
C     -4.2350696111     0.0062315841    -0.4457685690
C     -2.8133669944    -0.3601533621     0.0108115542
C     -1.8189799279     0.7992018714    -0.1616920882
C     -0.3982898789     0.4880002259     0.3273653960
H     -2.1820471850     1.6936961475     0.3826611642
H     -1.7565900735     1.0831273222    -1.2294438537
C      0.5776045146     1.6271020682    -0.0244441158
C      2.0481305447     1.3677795381     0.3311298841
C      2.7194711726     0.3109437929    -0.5654540382
C      4.1618880550    -0.0377731621    -0.1559130435
C      4.7564331722    -1.1729787431    -1.0025240944
H      4.1721653878    -0.3184014311     0.9135767760
O      5.0149615324     1.1528310326    -0.2055793811
C      6.1576027800    -1.6468423614    -0.5652766588
H      4.7872369504    -0.8341295007    -2.0579080774
H      4.0507380860    -2.0253496989    -0.9735834188
C     -7.3527480874     0.4309338671    -0.4527393145
H     -7.4998073820     0.4516438250     0.6419513628
H     -8.3542645922     0.4910968813    -0.9109586258
H     -6.8026178519     1.3438859793    -0.7366923129
C      6.1754061794    -2.3850386102     0.7831250308
H      6.8400313210    -0.7780921695    -0.5263513548
H      6.5569412592    -2.3131322976    -1.3516909184
H      5.5011085404    -3.2597675217     0.7657940676
H      5.8561139482    -1.7345473222     1.6162960555
H      7.1895509180    -2.7480710867     1.0231460807
H      2.1105613414     1.0207732254     1.3877759007
O      2.7279023056     2.6410485273     0.2250506831
H     -0.0608959315    -0.4586150333    -0.1444929418
O     -0.4782635746     0.2886442700     1.7651157284
H     -4.8612989977    -2.0553409395    -0.6331196309
O     -5.4363404650    -1.4007617265     1.1931189125
H      2.7065543211     0.6669235661    -1.6149859992
H      2.1256368532    -0.6222892751    -0.5325396986
H      0.2552904801     2.5394897066     0.5118345446
H      0.5082689108     1.8403404443    -1.1080347850
H     -4.5703067125     0.9195985961     0.0850713163
H     -4.2293299930     0.2617115468    -1.5239730263
H     -7.2725390700    -1.7253323125    -0.7217747493
H     -6.4523197603    -0.8091822062    -1.9984238859
H      5.2243151445     1.3219074351    -1.1448456924
H      3.6869197732     2.4145435818     0.1734709812
H     -5.6991119941    -0.5690262483     1.6292875864
H      0.3406128623    -0.1519715573     2.0541300927
H     -2.4594228629    -1.2361465925    -0.5694745102
H     -2.8346553522    -0.6720638416     1.0688668435
