30
YFSUTJLHUFNCNZ-UHFFFAOYSA-N optimised
O       -2.082363      2.877990     -1.565845
S       -2.798161      1.843944     -2.277607
O       -2.374436      1.265519     -3.523156
O       -4.335108      2.312164     -2.499738
C       -3.129597      0.427655     -1.050564
F       -3.834027     -0.526081     -1.690730
F       -3.908416      0.958086     -0.064071
C       -1.878572     -0.211245     -0.325137
F       -2.377289     -1.221429      0.442710
F       -1.347387      0.734126      0.488614
C       -0.752857     -0.782521     -1.260468
F       -0.094256      0.263925     -1.826244
F       -1.354642     -1.504985     -2.245319
C        0.322392     -1.763046     -0.631780
F       -0.334450     -2.869040     -0.186952
F        1.124076     -2.135098     -1.664902
C        1.250784     -1.311302      0.570550
F        0.451271     -1.056394      1.643067
F        2.021093     -2.399606      0.850793
C        2.205758     -0.081519      0.355446
F        1.462774      1.055025      0.362006
F        2.812405     -0.201976     -0.857003
C        3.385146      0.106002      1.400336
F        3.982075      1.283080      1.061819
F        4.286146     -0.896639      1.240239
C        3.030202      0.194772      2.925646
F        4.136079      0.556148      3.605161
F        2.614324     -0.998340      3.393486
F        2.068885      1.113574      3.141800
H       -4.551847      2.967210     -1.802094
