38
pe config_8780 from config_8780.mcos (coord_rad bohr -> angstrom)
C     -6.4843409424     0.5555342467     0.1675488176
C     -5.0203437406     1.0072561105     0.0494465068
H     -7.1758775883     1.4159350800     0.1799122399
H     -6.6503583057    -0.0199716519     1.0960542436
H     -6.7715016596    -0.0918635764    -0.6805578744
C     -4.0259474913    -0.1664820784     0.0292180060
H     -4.7705031096     1.6809260335     0.8924615400
H     -4.8906206513     1.6095199632    -0.8710685939
C     -2.5570354598     0.2745425144    -0.0888288571
H     -4.2750687604    -0.8409336844    -0.8150849232
H     -4.1547664027    -0.7693497225     0.9510340669
C     -1.5635436143    -0.8997931597    -0.1092215480
H     -2.3091047978     0.9494030015     0.7553284672
H     -2.4291577297     0.8775873428    -1.0104487969
C     -0.0940628035    -0.4594507758    -0.2288803370
H     -1.8122390611    -1.5751417206    -0.9528291360
H     -1.6909374665    -1.5022644537     0.8129878763
C      0.8908526252    -1.6424728407    -0.2624934352
H      0.1503471590     0.2138815837     0.6155591470
H      0.0344762534     0.1441371265    -1.1501248195
C      2.3710485118    -1.2408408967    -0.4320333620
H      0.6049276801    -2.3162050108    -1.0943126458
H      0.7788498133    -2.2390363171     0.6655612400
C      2.9716057263    -0.5146598785     0.7867097214
H      2.4717092798    -0.6121063202    -1.3382968142
H      2.9705364367    -2.1522639698    -0.6265940643
C      4.4858410478    -0.2352893781     0.6682702592
H      2.7964779824    -1.1375912205     1.6862164336
H      2.4309685338     0.4328822714     0.9685056110
C      4.8912564254     0.7805735491    -0.4218895580
H      5.0084575072    -1.1938083668     0.4793724618
H      4.8612874496     0.1284426195     1.6452102412
C      4.3876388797     2.2097675745    -0.1621810730
H      4.5333677161     0.4351933062    -1.4102240859
H      5.9956213584     0.7949039806    -0.4934640963
H      4.7422032430     2.9073092726    -0.9410538438
H      4.7479808841     2.5853031749     0.8128536610
H      3.2851092496     2.2630013355    -0.1509883807
