38
pe config_6040 from config_6040.mcos (coord_rad bohr -> angstrom)
C      7.0754485165     0.3092375190    -0.0000000687
C      5.7819173964    -0.5202707223    -0.0000000116
H      7.1318202339     0.9601013956    -0.8911107807
H      7.9717941366    -0.3351261101    -0.0000001088
H      7.1318203183     0.9601013850     0.8911106439
C      4.5095408048     0.3445480735    -0.0000000000
H      5.7683757730    -1.1868397480     0.8845466309
H      5.7683757398    -1.1868398189    -0.8845465937
C      3.2086988809    -0.4764970969     0.0000000299
H      4.5219103020     1.0115484392    -0.8858477190
H      4.5219103308     1.0115484981     0.8858476495
C      1.9367542592     0.3887179320    -0.0000000173
H      3.1974855627    -1.1434379226     0.8857413217
H      3.1974855588    -1.1434379987    -0.8857412004
C      0.6359653446    -0.4326307982     0.0000000418
H      1.9480737761     1.0555682865    -0.8857784679
H      1.9480737837     1.0555683568     0.8857783795
C     -0.6359653387     0.4326305873     0.0000000622
H      0.6246093025    -1.0995135929     0.8857655982
H      0.6246092620    -1.0995136402    -0.8857654742
C     -1.9367542721    -0.3887181474     0.0000000572
H     -0.6246092928     1.0995134040    -0.8857654749
H     -0.6246092818     1.0995134097     0.8857655977
C     -3.2086988548     0.4764969031     0.0000000430
H     -1.9480737813    -1.0555685270     0.8857784886
H     -1.9480737731    -1.0555685463    -0.8857783603
C     -4.5095408444    -0.3445481624    -0.0000000299
H     -3.1974854831     1.1434377818    -0.8857412034
H     -3.1974855373     1.1434377610     0.8857413127
C     -5.7819173066     0.5202708753     0.0000000000
H     -4.5219104851    -1.0115485667     0.8858476391
H     -4.5219104564    -1.0115485153    -0.8858477419
C     -7.0754485728    -0.3092370467    -0.0000000772
H     -5.7683754291     1.1868399539    -0.8845466113
H     -5.7683754747     1.1868399312     0.8845466060
H     -7.9717940827     0.3351267482    -0.0000000344
H     -7.1318205427    -0.9601010058     0.8911105656
H     -7.1318205388    -0.9601008566    -0.8911108332
