38
pe config_9790 from config_9790.mcos (coord_rad bohr -> angstrom)
C      5.9403237837     0.1417327017     1.2117598926
C      5.6031190020    -0.1453525009    -0.2610802406
H      5.3200858486     0.9550432597     1.6262741843
H      6.9966221135     0.4405031961     1.3302473119
H      5.7746727735    -0.7547310877     1.8364478994
C      4.1583987843    -0.6338645375    -0.4942885625
H      6.3039631990    -0.9092137166    -0.6483704423
H      5.7811616263     0.7642381481    -0.8678437465
C      3.0743626374     0.4229664598    -0.2143756991
H      3.9704299473    -1.5277487273     0.1344098952
H      4.0588254215    -0.9729009905    -1.5443587549
C      1.6491359731    -0.0815760637    -0.5032312213
H      3.2772690969     1.3220542071    -0.8309991776
H      3.1319578668     0.7549935468     0.8405214348
C      0.5678553061     0.9849389853    -0.2503515659
H      1.4518927757    -0.9773705712     0.1169611601
H      1.5860368383    -0.4179907947    -1.5580255245
C     -0.8711546721     0.5342190160    -0.5806875278
H      0.8092484892     1.8813462631    -0.8551130068
H      0.6143934906     1.3114341431     0.8083693603
C     -1.4260926437    -0.5517282172     0.3608032907
H     -0.9081502259     0.1624975489    -1.6248088947
H     -1.5324210884     1.4205527901    -0.5494620795
C     -2.8647570353    -1.0031499465     0.0300098769
H     -1.3896222022    -0.1798388356     1.4048518314
H     -0.7644311705    -1.4377945262     0.3299485630
C     -3.9465063903     0.0632101092     0.2806161949
H     -3.1063002619    -1.8990042478     0.6356154945
H     -2.9107098297    -1.3306816296    -1.0284156786
C     -5.3710869552    -0.4406956606    -0.0109888344
H     -3.7491487096     0.9593656715    -0.3390870426
H     -3.8860951963     0.3995664033     1.3357169357
C     -6.4520904141     0.6188156947     0.2541978963
H     -5.5717620261    -1.3390510624     0.6052163226
H     -5.4298558997    -0.7749370028    -1.0655008178
H     -7.4629375513     0.2317873295     0.0373201161
H     -6.2954522597     1.5145154554    -0.3735754124
H     -6.4387173198     0.9462689883     1.3093590702
