38
pe config_9140 from config_9140.mcos (coord_rad bohr -> angstrom)
C      6.1722809291     1.5034954082     0.3193666737
C      5.3017921444     0.2797316390    -0.0061769441
H      7.2482815960     1.2611281311     0.2734613542
H      5.9589176747     1.8862083034     1.3337199895
H      5.9844993485     2.3271245578    -0.3928520517
C      3.7938435562     0.5796617167     0.0470924212
H      5.5347395173    -0.5402595015     0.7011561561
H      5.5609657444    -0.1029197977    -1.0128394678
C      2.9130482870    -0.6387185557    -0.2785255805
H      3.5598455177     1.4002630456    -0.6611460876
H      3.5333875027     0.9617665045     1.0550600076
C      1.4049299358    -0.3378225091    -0.2276937586
H      3.1470580433    -1.4585731978     0.4305946101
H      3.1754835360    -1.0211695469    -1.2857448293
C      0.5324402899    -1.5593313550    -0.5708341011
H      1.1704803755     0.4835266701    -0.9347750956
H      1.1468250439     0.0417357414     0.7800010685
C     -0.9850257256    -1.2792478547    -0.5846407085
H      0.7461295055    -2.3764128485     0.1476557253
H      0.8353475759    -1.9411723149    -1.5658598952
C     -1.5848934140    -0.9855996224     0.8039594868
H     -1.5087750586    -2.1569569209    -1.0124464242
H     -1.1888844638    -0.4369664178    -1.2739773585
C     -3.1202156116    -0.8306920322     0.8085256274
H     -1.1297337040    -0.0705572441     1.2301994667
H     -1.3048011789    -1.8119452696     1.4869025788
C     -3.6378963900     0.4301556436     0.0923320506
H     -3.4755476769    -0.8115153918     1.8578345664
H     -3.5789319917    -1.7288036008     0.3474888923
C     -5.1678186789     0.5804065307     0.1616662189
H     -3.3254339743     0.4193371260    -0.9700949664
H     -3.1615539165     1.3242788835     0.5434784972
C     -5.6824689080     1.8476245669    -0.5388234645
H     -5.4840130050     0.5880184530     1.2232801951
H     -5.6420184810    -0.3124767405    -0.2912098988
H     -6.7812704916     1.9308730644    -0.4731586307
H     -5.4106065734     1.8500677525    -1.6098164565
H     -5.2504889513     2.7574191039    -0.0843994734
