38
pe config_7530 from config_7530.mcos (coord_rad bohr -> angstrom)
C      5.5883561300    -1.8379153441    -0.0391851415
C      4.5591468872    -0.8601351555     0.5491471177
H      6.3067936437    -2.1811550333     0.7254752708
H      6.1671131170    -1.3654380343    -0.8532442547
H      5.0940897921    -2.7326441918    -0.4588248286
C      3.5403327392    -0.3586844546    -0.4888396562
H      5.0836682968     0.0089157760     0.9923600463
H      4.0183236602    -1.3479606492     1.3836628416
C      2.5075386960     0.6247238467     0.0890319534
H      3.0117758280    -1.2278600100    -0.9304924349
H      4.0811402323     0.1281577584    -1.3257398402
C      1.4989965088     1.1276226331    -0.9592941173
H      3.0356823093     1.4943003873     0.5302978916
H      1.9730166937     0.1343155389     0.9259334775
C      0.4893994800     2.1665067852    -0.4250853177
H      0.9595707901     0.2626899809    -1.3920137618
H      2.0598546521     1.5820364692    -1.7999631885
C     -0.5129435568     1.6425161606     0.6258596930
H     -0.0796935101     2.5859396346    -1.2780834538
H      1.0531102248     3.0160095306     0.0084393333
C     -1.5171683008     0.6076718509     0.0861797887
H     -1.0777611211     2.5042714100     1.0337304623
H      0.0320399974     1.2078936170     1.4864396265
C     -2.5273064079     0.1460021539     1.1529676562
H     -0.9789380413    -0.2794184566    -0.3013490865
H     -2.0504145383     1.0460098181    -0.7797746991
C     -3.5283662061    -0.9228598368     0.6677976046
H     -3.0867445058     1.0247343349     1.5331267393
H     -1.9665815402    -0.2555113720     2.0200773375
C     -4.5471418260    -0.4208217900    -0.3718105240
H     -4.0829755518    -1.3185619829     1.5417066928
H     -2.9698518425    -1.7836445818     0.2469666124
C     -5.5552266222    -1.5040762109    -0.7873838276
H     -4.0183238675    -0.0496888224    -1.2697011434
H     -5.0878567173     0.4505633339     0.0470541606
H     -6.2833769296    -1.1214075343    -1.5236698267
H     -6.1237568138    -1.8748703547     0.0845563846
H     -5.0436093857    -2.3709803972    -1.2432817338
