38
pe config_5010 from config_5010.mcos (coord_rad bohr -> angstrom)
C      5.0460282329     1.4951494817     0.3177359016
C      5.4961452882     0.0250715913     0.3375354913
H      4.9024943783     1.8547640273    -0.7169946121
H      5.7980860149     2.1461562316     0.7975397327
H      4.0944000385     1.6422771789     0.8566182929
C      4.5751677581    -0.9619356810    -0.4112841560
H      5.5980207327    -0.3124260466     1.3873551023
H      6.5107216056    -0.0437124898    -0.1008105539
C      3.1567237589    -1.1454268185     0.1876275211
H      5.0825303390    -1.9449560819    -0.4286897673
H      4.4897676027    -0.6519660020    -1.4723606565
C      2.0680893298    -0.2309919651    -0.4073487133
H      3.2012422206    -1.0000232521     1.2860461050
H      2.8363906498    -2.1949059162     0.0383932315
C      0.6715222541    -0.4967186463     0.1815614496
H      2.0372489331    -0.3791205797    -1.5052419802
H      2.3327659828     0.8317960105    -0.2505979992
C     -0.4273056133     0.3981261749    -0.4173835016
H      0.7028390761    -0.3509026709     1.2804152711
H      0.4051146409    -1.5612169150     0.0219051525
C     -1.8243872614     0.1322764566     0.1700291631
H     -0.4588454477     0.2519534187    -1.5162101053
H     -0.1602611321     1.4624180260    -0.2578285327
C     -2.9151841689     1.0397095833    -0.4276486039
H     -1.7946448609     0.2789448633     1.2688250977
H     -2.0857454179    -0.9316397273     0.0092950982
C     -4.3216416708     0.8302766443     0.1708203694
H     -2.9593861454     0.8867331324    -1.5249994313
H     -2.6162756527     2.0961909409    -0.2797995093
C     -4.9722223339    -0.5201395211    -0.1809001949
H     -4.9866200094     1.6436025219    -0.1814626188
H     -4.2698917913     0.9359495348     1.2735897117
C     -6.3912386945    -0.6633408357     0.3922420995
H     -4.3428274659    -1.3507698554     0.1898993027
H     -5.0027655058    -0.6277070217    -1.2829866366
H     -6.3844528277    -0.5963875135     1.4952441668
H     -6.8444125737    -1.6324217554     0.1196963522
H     -7.0556746595     0.1350311536     0.0152388308
