38
pe config_1940 from config_1940.mcos (coord_rad bohr -> angstrom)
C     -5.6543946912     1.3527875160     0.7243983597
C     -5.4752135491     0.1390835036    -0.2030024026
H     -5.4558806345     2.2955423606     0.1830045370
H     -4.9702685909     1.3159074881     1.5896303301
H     -6.6835107132     1.4059080374     1.1208339636
C     -4.0767809564     0.0376557665    -0.8467448722
H     -6.2345765276     0.1852864140    -1.0066746825
H     -5.6847714535    -0.7926663889     0.3583310162
C     -2.9388063163    -0.2682055064     0.1441119083
H     -3.8530325016     0.9827037981    -1.3819870550
H     -4.0942014747    -0.7548462761    -1.6208365711
C     -1.5658027702    -0.4065577375    -0.5367561825
H     -3.1752807073    -1.2052929919     0.6878102894
H     -2.8810105646     0.5265758865     0.9129950816
C     -0.4242714862    -0.7295616427     0.4426933989
H     -1.3292799571     0.5323376434    -1.0773045575
H     -1.6195078134    -1.1994625019    -1.3099762688
C      0.9479074504    -0.8700396072    -0.2392872577
H     -0.6612876030    -1.6677410606     0.9841432812
H     -0.3690943354     0.0639296264     1.2153243583
C      2.0815408027    -1.2054238219     0.7464278435
H      1.1793106553     0.0691685269    -0.7787862785
H      0.8941949886    -1.6627526172    -1.0129168998
C      3.4609710024    -1.4129523098     0.0844421202
H      1.8115477801    -2.1297210436     1.2946030517
H      2.1454406286    -0.4101931209     1.5144669621
C      4.0848877054    -0.1578448025    -0.5629956481
H      3.3684587896    -2.2056142368    -0.6838953863
H      4.1671196506    -1.8072401164     0.8416170613
C      4.4751449809     0.9457782699     0.4365548087
H      3.3937359180     0.2630554508    -1.3193013333
H      4.9912826645    -0.4629244717    -1.1228752904
C      5.1452927958     2.1514236395    -0.2414824408
H      5.1581843646     0.5180699317     1.1966919005
H      3.5801533149     1.2884595948     0.9894725335
H      6.0638694454     1.8483805988    -0.7757873920
H      5.4254159975     2.9273729666     0.4921350977
H      4.4701388696     2.6188968973    -0.9808755612
