38
pe config_1960 from config_1960.mcos (coord_rad bohr -> angstrom)
C      3.8242499105     2.3185733970     0.6630750019
C      4.4146748086     1.2329852349    -0.2524845183
H      2.7371173881     2.4372094018     0.5146040872
H      4.2912364436     3.3008282782     0.4728181771
H      3.9899781814     2.0704563611     1.7271646143
C      3.8568497523    -0.1822626190     0.0049739238
H      5.5134692342     1.2113159418    -0.1227665616
H      4.2401256851     1.5044812450    -1.3121838149
C      2.3711070540    -0.3587869694    -0.3594620697
H      4.0062027026    -0.4435855037     1.0723276208
H      4.4526580654    -0.9147576497    -0.5748141150
C      1.8717355468    -1.7995151374    -0.1430486935
H      2.2223786187    -0.0787311622    -1.4221545877
H      1.7551681572     0.3429349665     0.2330111409
C      0.4066483475    -2.0402325844    -0.5622852504
H      1.9955138211    -2.0746078300     0.9240435158
H      2.5256112610    -2.4892954242    -0.7125660539
C     -0.6361777468    -1.3265330099     0.3179654734
H      0.2018692170    -3.1289127790    -0.5401170609
H      0.2727282173    -1.7269661780    -1.6175159270
C     -2.0841327342    -1.6507809120    -0.0930502665
H     -0.4718743863    -0.2333654078     0.2798581669
H     -0.4834089849    -1.6242203972     1.3753336004
C     -3.1611949883    -1.0170015868     0.8137398658
H     -2.2163496289    -2.7508955409    -0.0814313708
H     -2.2441748360    -1.3415900860    -1.1444376338
C     -3.2538533322     0.5232870667     0.7619048653
H     -2.9719287964    -1.3310742218     1.8590686229
H     -4.1499722462    -1.4388906665     0.5459396549
C     -3.7356492667     1.0857693456    -0.5874871095
H     -2.2732163855     0.9718145177     1.0149655671
H     -3.9510375531     0.8618626304     1.5539953102
C     -3.8705480840     2.6168350482    -0.5789294294
H     -4.7115442900     0.6267946407    -0.8410361397
H     -3.0390103853     0.7849208193    -1.3926730327
H     -4.5875864108     2.9493586360     0.1933232936
H     -4.2250198607     2.9997750605    -1.5517985371
H     -2.9011888341     3.1011167074    -0.3624292952
