38
pe config_840 from config_840.mcos (coord_rad bohr -> angstrom)
C      3.5472613483    -2.3358677559    -0.1545602752
C      4.2040122535    -1.0792347023     0.4399433100
H      4.0225797584    -2.6146120479    -1.1125841534
H      2.4711985190    -2.1860138072    -0.3495355365
H      3.6402305569    -3.1981974381     0.5285682177
C      4.1646837433     0.1495695657    -0.4944486167
H      5.2609919827    -1.3039440270     0.6790821030
H      3.7256884124    -0.8326245603     1.4067244129
C      2.7595695716     0.7239449701    -0.7785603463
H      4.6421985250    -0.1245781345    -1.4559693410
H      4.7933989766     0.9523260439    -0.0608410670
C      2.0867393235     1.3685276185     0.4479345697
H      2.1101650669    -0.0685207715    -1.1959872043
H      2.8449347411     1.4905863192    -1.5741403455
C      0.7458460942     2.0673565211     0.1339180472
H      2.7831426600     2.1172373532     0.8754082521
H      1.9380257714     0.6123180648     1.2413674861
C     -0.4130693325     1.1361687764    -0.2867903307
H      0.9167850987     2.8115964897    -0.6689350133
H      0.4266416367     2.6484830540     1.0216494634
C     -0.9042252859     0.1993169278     0.8326679740
H     -0.1129356988     0.5273041415    -1.1619695838
H     -1.2534415231     1.7664845474    -0.6339697693
C     -2.0696238874    -0.7250467760     0.4200867355
H     -1.2110125017     0.8079490691     1.7075100860
H     -0.0631741766    -0.4298936811     1.1804273685
C     -3.4031793286    -0.0006549078     0.1610694545
H     -2.2273639202    -1.4792096612     1.2163050604
H     -1.7799517890    -1.2954187262    -0.4856590186
C     -4.5517732037    -0.9587349459    -0.2008005878
H     -3.2828503394     0.7391985846    -0.6539503982
H     -3.6815554601     0.5796178664     1.0643036519
C     -5.8858516522    -0.2363629492    -0.4454460002
H     -4.6748080464    -1.7017065747     0.6115651654
H     -4.2720703947    -1.5371714095    -1.1031814077
H     -5.8009820572     0.4881165084    -1.2754146748
H     -6.2067471801     0.3226838722     0.4519295707
H     -6.6914264838    -0.9459051294    -0.7027869292
