38
pe config_1950 from config_1950.mcos (coord_rad bohr -> angstrom)
C      3.8242499687     2.3185733363     0.6630750118
C      4.4146748509     1.2329851655    -0.2524845072
H      3.9899782125     2.0704562867     1.7271646253
H      2.7371174526     2.4372093743     0.5146040801
H      4.2912365343     3.3008282055     0.4728182045
C      3.8568497540    -0.1822626768     0.0049739186
H      5.5134692744     1.2113158418    -0.1227665398
H      4.2401257447     1.5044811843    -1.3121838043
C      2.3711070442    -0.3587869714    -0.3594620543
H      4.0062027113    -0.4435855821     1.0723276092
H      4.4526580354    -0.9147577153    -0.5748141413
C      1.8717354880    -1.7995151250    -0.1430486841
H      2.2223786015    -0.0787311424    -1.4221545663
H      1.7551681829     0.3429349782     0.2330111756
C      0.4066482894    -2.0402325381    -0.5622852703
H      1.9955137402    -2.0746078278     0.9240435253
H      2.5256111903    -2.4892954253    -0.7125660406
C     -0.6361778155    -1.3265330028     0.3179654755
H      0.2018691534    -3.1289127317    -0.5401171253
H      0.2727281750    -1.7269660889    -1.6175159359
C     -2.0841327984    -1.6507808989    -0.0930502827
H     -0.4718744640    -0.2333653989     0.2798582023
H     -0.4834090569    -1.6242204193     1.3753335949
C     -3.1611950539    -1.0170015797     0.8137398519
H     -2.2163496992    -2.7508955269    -0.0814314077
H     -2.2441748891    -1.3415900510    -1.1444376455
C     -3.2538533659     0.5232870750     0.7619048816
H     -2.9719288831    -1.3310742396     1.8590686052
H     -4.1499723157    -1.4388906312     0.5459396142
C     -3.7356491926     1.0857693902    -0.5874871163
H     -2.2732164236     0.9718144928     1.0149656545
H     -3.9510376300     0.8618626374     1.5539952888
C     -3.8705479293     2.6168350997    -0.5789294294
H     -4.7115442231     0.6267947351    -0.8410362095
H     -3.0390102778     0.7849208356    -1.3926730008
H     -4.5875862915     2.9493587159     0.1933232483
H     -4.2250196228     2.9997751405    -1.5517985558
H     -2.9011886701     3.1011167087    -0.3624292248
