38
pe config_7570 from config_7570.mcos (coord_rad bohr -> angstrom)
C     -4.9333861600     1.8359477442    -0.0839633990
C     -3.8359254592     0.9996428277     0.5925137051
H     -4.5093769864     2.4956105287    -0.8624120187
H     -5.4637033455     2.4754532285     0.6429911601
H     -5.6852450109     1.1886455398    -0.5704009525
C     -3.0735532619     0.0946881887    -0.3906245850
H     -4.2837882778     0.3739451183     1.3892177341
H     -3.1170509463     1.6718029342     1.1006627012
C     -1.9740642472    -0.7492315770     0.2776781226
H     -2.6222678433     0.7200882912    -1.1875164382
H     -3.7928354398    -0.5782234676    -0.9002331096
C     -1.2256008810    -1.6611055379    -0.7108789758
H     -2.4249188802    -1.3734381549     1.0757349070
H     -1.2596405061    -0.0721911698     0.7853851165
C     -0.1595000458    -2.5672401048    -0.0577334432
H     -0.7623533871    -1.0407030201    -1.5027228361
H     -1.9651479009    -2.3038888198    -1.2281631107
C      1.0668116339    -1.8364958373     0.5317580051
H      0.1951736535    -3.3024217605    -0.8068686860
H     -0.6440585826    -3.1606289996     0.7426903194
C      1.9719597914    -1.1783711696    -0.5266801157
H      1.6728437009    -2.5673310517     1.1032979681
H      0.7333774299    -1.0829980844     1.2698208233
C      3.2711425078    -0.5715702772     0.0466083540
H      1.4088749227    -0.4020217977    -1.0786472642
H      2.2420520154    -1.9444157771    -1.2804459527
C      3.0815825165     0.6614951903     0.9584411707
H      3.9435724945    -0.3066891234    -0.7912606487
H      3.8043646466    -1.3560388783     0.6192878572
C      2.5209597870     1.9186449844     0.2594605929
H      4.0588158242     0.9177152976     1.4137073360
H      2.4196224232     0.3952041035     1.8042889694
C      3.4659623792     2.5249123355    -0.7911026093
H      2.3035095916     2.6811594684     1.0315541208
H      1.5464398309     1.6852098419    -0.2099849226
H      4.4417132439     2.7853124715    -0.3420167019
H      3.0415898360     3.4461492945    -1.2270255078
H      3.6601061287     1.8267933853    -1.6238017986
