38
pe config_4170 from config_4170.mcos (coord_rad bohr -> angstrom)
C      6.6765916396     1.0243730471    -0.1719729602
C      5.5557896795     0.0870378796     0.3040245259
H      7.6632024262     0.7028549974     0.2046841223
H      6.5064698782     2.0587747707     0.1772566621
H      6.7325229269     1.0510223543    -1.2751673408
C      4.1639105125     0.5047756201    -0.2009278948
H      5.5456523358     0.0527502186     1.4111097991
H      5.7689682009    -0.9468945541    -0.0312872103
C      3.0342176470    -0.4271707982     0.2698275453
H      4.1729731705     0.5387058116    -1.3093223217
H      3.9494649320     1.5395263401     0.1353496275
C      1.6429110592    -0.0084417263    -0.2353974614
H      3.0263340970    -0.4609280816     1.3781241640
H      3.2496938813    -1.4615381139    -0.0665415688
C      0.5125608641    -0.9400290728     0.2348555350
H      1.6510861191     0.0253183639    -1.3436323208
H      1.4280650516     1.0260999075     0.1008158979
C     -0.8785892357    -0.5211554872    -0.2721151456
H      0.5034444483    -0.9730871961     1.3432516297
H      0.7272820519    -1.9749062059    -0.1004961218
C     -2.0019029185    -1.4659559303     0.1926055960
H     -0.8704288645    -0.4872919763    -1.3804608162
H     -1.0883061723     0.5124757528     0.0650365431
C     -3.4034324166    -1.1062701932    -0.3426544835
H     -2.0285099468    -1.4875924737     1.3008854944
H     -1.7507229446    -2.4970340029    -0.1256721641
C     -3.9869153507     0.2020584040     0.2210220712
H     -4.1005394919    -1.9344493968    -0.1065484288
H     -3.3673535626    -1.0452816443    -1.4492121457
C     -5.4059105818     0.5028567436    -0.2928740396
H     -3.3253799494     1.0534704580    -0.0316453230
H     -4.0033515089     0.1438161505     1.3284141805
C     -5.9928243763     1.8021385619     0.2804883869
H     -6.0704190766    -0.3474200459    -0.0428737197
H     -5.3875786724     0.5604081863    -1.3990089065
H     -6.0534581646     1.7594858682     1.3828966000
H     -7.0103116360     1.9928115300    -0.1029150054
H     -5.3672386630     2.6736006921     0.0156686214
