38
pe config_7260 from config_7260.mcos (coord_rad bohr -> angstrom)
C     -5.6760551465     1.8146091034     0.2065043270
C     -4.2723448717     1.4458575926    -0.2983997680
H     -6.4235622762     1.0650357080    -0.1102048896
H     -6.0026349777     2.7956888368    -0.1801189132
H     -5.7026346979     1.8646926810     1.3100078914
C     -3.7823967470     0.0826747141     0.2195280144
H     -3.5512534218     2.2304548411     0.0039110610
H     -4.2665731441     1.4369549746    -1.4059904308
C     -2.3776982229    -0.2962410842    -0.2815026745
H     -4.5035295142    -0.7036985648    -0.0828916332
H     -3.7862037915     0.0912314257     1.3285644752
C     -1.9012161845    -1.6677175285     0.2303945655
H     -1.6624420645     0.4921130209     0.0235076242
H     -2.3733669074    -0.3029264927    -1.3903858057
C     -0.5185479949    -2.1030636225    -0.2980535223
H     -2.6507288078    -2.4318124964    -0.0557197182
H     -1.8824395275    -1.6598211073     1.3389970509
C      0.6605453089    -1.2652414292     0.2305934513
H     -0.5247641938    -2.0703167424    -1.4065058525
H     -0.3479960591    -3.1635736957    -0.0263882911
C      2.0248034473    -1.7710921172    -0.2739027762
H      0.6528593339    -1.2874527350     1.3393414080
H      0.5250279891    -0.2061163264    -0.0568590275
C      3.2398250166    -1.0048308939     0.2887223868
H      2.0461603622    -1.7269081878    -1.3817173750
H      2.1235404736    -2.8428270173    -0.0105646634
C      3.3619124221     0.4497290274    -0.2006447488
H      4.1649827401    -1.5488709332     0.0135961691
H      3.1979148347    -1.0169132034     1.3966693646
C      4.6143704673     1.1654642892     0.3352250074
H      2.4643709625     1.0271048019     0.0951101612
H      3.3816235676     0.4586292212    -1.3094823225
C      4.7424196571     2.6132565823    -0.1636576885
H      5.5145075982     0.5902247858     0.0421715567
H      4.5932322164     1.1551872039     1.4427570192
H      3.8724135164     3.2203102019     0.1453983773
H      4.7990955134     2.6512231012    -1.2664541734
H      5.6486973647     3.1019588985     0.2344114925
