38
pe config_4140 from config_4140.mcos (coord_rad bohr -> angstrom)
C      6.6765918332     1.0243729680    -0.1719748782
C      5.5557896649     0.0870401544     0.3040275243
H      6.7325234692     1.0510157573    -1.2751692443
H      7.6632023343     0.7028572475     0.2046846111
H      6.5064695129     2.0587764818     0.1772486627
C      4.1639109058     0.5047743256    -0.2009293945
H      5.5456511719     0.0527597829     1.4111129036
H      5.7689691114    -0.9468942051    -0.0312772430
C      3.0342175636    -0.4271697518     0.2698302643
H      4.1729750602     0.5386978028    -1.3093238687
H      3.9494645064     1.5395269085     0.1353413516
C      1.6429115208    -0.0084437491    -0.2353993201
H      3.0263324651    -0.4609204466     1.3781269426
H      3.2496944332    -1.4615389367    -0.0665322280
C      0.5125608013    -0.9400292326     0.2348566986
H      1.6510884032     0.0253107352    -1.3436342040
H      1.4280646166     1.0260994376     0.1008082260
C     -0.8785888912    -0.5211568612    -0.2721164352
H      0.5034437084    -0.9730831508     1.3432527518
H      0.7272819920    -1.9749075873    -0.1004907243
C     -2.0019032905    -1.4659560931     0.1926054791
H     -0.8704274489    -0.4872959248    -1.3804620718
H     -1.0883059758     0.5124750066     0.0650326666
C     -3.4034326061    -1.1062699289    -0.3426552961
H     -2.0285104063    -1.4875917400     1.3008853061
H     -1.7507237489    -2.4970345564    -0.1256710511
C     -3.9869158124     0.2020583566     0.2210221299
H     -4.1005399599    -1.9344490520    -0.1065501762
H     -3.3673533353    -1.0452809777    -1.4492128642
C     -5.4059106902     0.5028577386    -0.2928746345
H     -3.3253802289     1.0534704255    -0.0316440287
H     -4.0033527101     0.1438150607     1.3284140649
C     -5.9928244718     1.8021390116     0.2804896391
H     -6.0704197671    -0.3474190336    -0.0428762317
H     -5.3875779829     0.5604111141    -1.3990092713
H     -6.0534592629     1.7594841718     1.3828975462
H     -7.0103111017     1.9928129745    -0.1029144941
H     -5.3672380204     2.6736010742     0.0156720074
