38
pe config_2180 from config_2180.mcos (coord_rad bohr -> angstrom)
C      4.9000030465    -2.0827675140     0.2337039184
C      3.6002534686    -1.2869248593     0.0345619184
H      4.6988476196    -3.1551924335     0.4016069049
H      5.4670893197    -1.7089443254     1.1053803248
H      5.5574916681    -1.9996827928    -0.6505267950
C      3.8519634697     0.2111154700    -0.2177642858
H      2.9522325486    -1.4168102810     0.9216251221
H      3.0345848623    -1.7050864648    -0.8211271439
C      2.5775656563     1.0418970926    -0.4761208764
H      4.5293370247     0.3120673705    -1.0889131688
H      4.3996329275     0.6405166936     0.6458215206
C      1.6660895272     1.1991717897     0.7558373576
H      2.0135234476     0.5835118909    -1.3119203884
H      2.8711213891     2.0516364861    -0.8253857606
C      0.4590066048     2.1351460516     0.5284651369
H      2.2734890779     1.6020745502     1.5905621579
H      1.3110339410     0.2080216273     1.0943523382
C     -0.6009552690     1.6242486322    -0.4715942981
H      0.8351222832     3.1181051918     0.1822820511
H     -0.0361643698     2.3258511941     1.5010432239
C     -1.3657857949     0.3731888017    -0.0026239212
H     -0.1289451545     1.4180092786    -1.4520744056
H     -1.3314265932     2.4367249703    -0.6562330632
C     -2.4456117351    -0.0754236912    -1.0045277511
H     -1.8245796764     0.5842993840     0.9832657436
H     -0.6611377557    -0.4656728114     0.1607971835
C     -3.2044378844    -1.3553257105    -0.5927555631
H     -1.9650832651    -0.2512860301    -1.9873002461
H     -3.1613298696     0.7541827140    -1.1662858159
C     -4.0996197240    -1.2234022399     0.6583577015
H     -2.4674534418    -2.1653784438    -0.4248544921
H     -3.8332311869    -1.6890084415    -1.4418339161
C     -5.2944866769    -0.2735294370     0.4737690700
H     -3.4928019161    -0.8923412624     1.5222489011
H     -4.4767134097    -2.2287483318     0.9268000064
H     -5.9295947003    -0.2485487382     1.3764661295
H     -5.9280632872    -0.5949248894    -0.3728439919
H     -4.9708896157     0.7622575801     0.2711971372
