84
nylon6 config_89840 from config_89840.mcos (coord_rad bohr -> angstrom)
N      3.8050996926     2.5297073468    -0.0967335612
C      2.4479248952     3.0111322765     0.1824006433
C      1.6526576225     3.2812417151    -1.1089171624
H      2.5078078197     3.9416734625     0.7782455393
H      1.9619123833     2.2505172584     0.8129050346
C      1.2532302227     2.0288104214    -1.9148533281
H      2.2421094041     3.9623178488    -1.7517883123
H      0.7430330432     3.8448539462    -0.8286598991
C      0.1309613060     1.2035793574    -1.2598339467
H      2.1461681885     1.3960080477    -2.0841073414
H      0.9160914377     2.3485157203    -2.9188968219
C     -0.2980105876    -0.0044822767    -2.1196118245
H     -0.7483795541     1.8517864625    -1.0960941726
H      0.4506540395     0.8430940530    -0.2641118937
C     -1.5668935507    -0.6797677694    -1.5975699654
H      0.5220832091    -0.7364971005    -2.2082512507
H     -0.5338154511     0.3447609342    -3.1424933988
O     -2.6516328439    -0.0538431332    -1.5378473472
H      0.3876265740    -0.8614569468     3.9479416609
H     -1.8834772427     0.1438305893     4.0294398044
H     -1.5228642161    -1.7398137839     2.4464109259
H     -3.8671781326     1.0523916490     3.1206940559
H      2.1303537341    -2.2256524141     3.0169841913
C     -0.9982773610    -0.7780395038     2.2830232640
C     -1.8152440371     0.3466477785     2.9430603469
C     -3.2540626286     0.4897570232     2.3986286014
C      1.1863756332    -2.1769279195     2.4445747813
C      1.5141622190    -2.3272122010     0.9543618777
C      0.4315459736    -0.8832849962     2.8421341151
N     -3.3577995894     1.2043164494     1.1223290242
O      0.8734289460    -3.1098356763     0.2140844770
H     -1.2962868310     1.3184996359     2.8398809367
H      1.0209747769     0.0029416240     2.5424519701
H     -3.7085741225    -0.5108975658     2.2758442466
H      0.5824536344    -3.0562982148     2.7206727731
H     -0.9624632760    -0.6299161687     1.1886967290
H     -2.3176520299    -4.3944305416    -2.1406804207
H     -2.2074250521    -3.3305337121     0.1625291957
C     -4.3099289140    -4.5816706047    -1.2716986424
C     -3.1296545823    -3.7318242195    -1.7843436417
C     -2.5695848688    -2.7714621146    -0.7162500858
C     -3.9521987267     3.0457552201    -0.3721702237
C     -3.8024292539     2.4870786050     1.0449916092
N     -1.4481559828    -1.9724310597    -1.2206703700
O     -4.0966081404     3.1661886065     2.0491054860
H     -3.4532094033    -3.1331616790    -2.6558156540
H     -3.3608913037    -2.0800082103    -0.3816221103
H      5.1559893196     0.1618954847    -1.6948169370
H      4.7666530749    -2.3521658954    -1.9890504093
H      5.2502161229    -1.2406922040     0.8505773818
H      2.3779556761    -2.2696976339    -1.4460555021
H      6.4364827237     0.9666070766     0.9949910807
C      5.5646910316    -1.3985465640    -0.1964209085
C      4.4953667504    -2.2398413487    -0.9221478692
C      3.0729187822    -1.6487383283    -0.8597497423
C      5.8315546810     1.1857514003     0.0988095390
C      4.4164469290     1.5183670252     0.5693519587
C      5.8645220959    -0.0284378605    -0.8669102505
N      2.5487900061    -1.5780272371     0.5058623442
O      3.8479857643     0.8680333378     1.4754230428
H      4.4725040913    -3.2594462501    -0.4943595790
H      6.8637578924    -0.0550639698    -1.3340304949
H      3.0615968091    -0.6340948804    -1.2995467476
H      6.2804095727     2.0628464504    -0.3992719306
H      6.4974386081    -1.9871611908    -0.1404254691
H      2.9771144604    -0.8756271587     1.1218820547
H      4.3516947711     3.0488655945    -0.7828129514
H     -0.5108576753    -2.3722001526    -1.0971282478
C     -3.3336236379     4.4470671156    -0.5361011556
H     -3.5242487386     2.3421858927    -1.1073125608
H     -5.0403601057     3.1046736855    -0.5720882818
H     -3.1451887416     0.7102561793     0.2459801725
C     -3.6169000736     5.0496669066    -1.9199038444
H     -2.2409929067     4.3857900533    -0.3718067253
H     -3.7315559502     5.1055397518     0.2552640321
H     -4.7028124384     5.1540942636    -2.0924614526
H     -3.2101845094     4.4153363651    -2.7278004254
H     -3.1629588374     6.0505653049    -2.0207754147
C     -3.9246361466    -5.6157383284    -0.2003483409
H     -4.7635373367    -5.1063482961    -2.1332611464
H     -5.0976583968    -3.9108226937    -0.8776726376
H     -3.5573120387    -5.1403950529     0.7256703482
H     -3.1291829225    -6.2880760219    -0.5687752681
H     -4.7904254879    -6.2419780273     0.0762391685
