84
nylon6 config_97370 from config_97370.mcos (coord_rad bohr -> angstrom)
N     -3.7399495720     1.8070224099    -0.3696093276
C     -4.6019434466     2.9552004784    -0.0778421712
C     -6.0250053803     2.7981740941    -0.6454441029
H     -4.1345994725     3.8674090751    -0.4928346089
H     -4.6269672079     3.0592043009     1.0190825406
C     -6.8411167373     1.6699465184     0.0063981321
H     -5.9647462224     2.6330997791    -1.7391773511
H     -6.5470921646     3.7641171350    -0.5079422427
C     -8.2436286744     1.5238355947    -0.6062056797
H     -6.9285598584     1.8635388376     1.0936027670
H     -6.2980410681     0.7113429304    -0.0978169036
C     -9.0542726858     0.3812104293     0.0407780971
H     -8.1595974297     1.3297131168    -1.6911215875
H     -8.7994201504     2.4753107643    -0.4951808513
C    -10.4004425756     0.1692665696    -0.6533889586
H     -9.1893653078     0.5721417976     1.1203399669
H     -8.4917556319    -0.5656734747    -0.0574088919
O    -10.4665968523    -0.1849233001    -1.8452389930
H      6.6310569162     0.4208908688    -0.9699093816
H      8.5805675199     2.0050981454    -0.5064543658
H      8.8130091913    -0.4990730770    -0.0887164555
H     10.3150731852     1.2716416622     1.9499780333
H      6.8581412526    -2.0559087576    -0.5437823061
C      8.1695093563     0.1418437518     0.5436426521
C      8.6926726495     1.5872267534     0.5134079692
C     10.1580904654     1.7358818231     0.9627475663
C      6.1974805074    -1.4253369802     0.0796902922
C      4.7912013011    -1.5412385340    -0.5088648414
C      6.7146173441     0.0283642311     0.0599179301
N     11.1034249028     1.0953479538     0.0450195708
O      4.5544647752    -1.2472912170    -1.6954116676
H      8.0743646369     2.2221347863     1.1760163897
H      6.0607514542     0.6578506944     0.6944625439
H     10.4134834388     2.8083322899     1.0498943437
H      6.2317303430    -1.8290144284     1.1072028497
H      8.2503887952    -0.2541026219     1.5750547391
H    -14.7402891230    -0.7044290226     0.0652334608
H    -13.3787935910     1.2658139104    -0.2557212502
C    -13.1905181820    -2.2293820191     0.1531762897
C    -13.6850956701    -0.7925864330     0.3881479544
C    -12.8795941655     0.2849278820    -0.3618511571
C     12.8724295758    -0.4115947279    -0.7170081261
C     11.9557408119     0.0949099614     0.3972531255
N    -11.4987969012     0.4051643751     0.1138882132
O     12.0082098684    -0.3797795008     1.5471765129
H    -13.6756702438    -0.5664205030     1.4728844461
H    -12.8218706824     0.0507605970    -1.4373723893
H     -0.4108034172     1.0116788986    -0.0179282595
H      1.9611036980    -0.0044818874    -0.0566273551
H      0.0060512057    -1.2497603532    -1.0758969005
H      2.3807886736    -2.2452897286    -1.1180903204
H     -2.3695451112    -0.2036221412    -1.0480511298
C      0.0814844903    -1.1060926503     0.0199223329
C      1.5578688186    -0.9227999164     0.4098285075
C      2.4199250905    -2.1242362162    -0.0231199021
C     -2.2770802726    -0.1076536881     0.0485278570
C     -3.1620554869     1.0212320800     0.5789563345
C     -0.7974259416     0.0825640080     0.4437415337
N      3.8293015602    -1.9794407873     0.3467317302
O     -3.3210607132     1.2013144710     1.8006377463
H      1.6436116690    -0.7883405301     1.5050203875
H     -0.7360975807     0.2216053981     1.5386270944
H      2.0365243229    -3.0522208742     0.4373463355
H     -2.6559156245    -1.0461454398     0.4936009812
H     -0.3109137830    -2.0329983452     0.4823826323
H      4.0924058818    -2.1788298558     1.3091872598
H     -3.5428118851     1.6019605647    -1.3474374652
H    -11.3555070689     0.7088076797     1.0752722548
C     14.3613739320    -0.1336174255    -0.4185022666
H     12.7137388757    -1.5035740976    -0.7896892807
H     12.5922249601     0.0261475063    -1.6918932413
H     11.1368851348     1.4387825273    -0.9131224847
C     15.2897717508    -0.7357350915    -1.4829090881
H     14.6059976104    -0.5470032121     0.5759684532
H     14.5228458183     0.9589738029    -0.3550769606
H     16.3484518938    -0.5262398572    -1.2524080934
H     15.0767313106    -0.3203319670    -2.4839444899
H     15.1685972197    -1.8318010035    -1.5419622588
C    -14.0063703626    -3.2720804917     0.9327231948
H    -12.1251621787    -2.3020918732     0.4411722815
H    -13.2342542999    -2.4548201672    -0.9297522757
H    -13.9572286800    -3.0845385870     2.0202202736
H    -13.6319876454    -4.2945677767     0.7524217566
H    -15.0712252069    -3.2496787824     0.6384863635
