84
nylon6 config_490 from config_490.mcos (coord_rad bohr -> angstrom)
N     -2.7232768740     0.8276862251     2.2835052328
C     -4.1315219649     1.0798434766     1.9715187313
C     -4.3126483008     1.8814045243     0.6672605501
H     -4.5858820746     1.6306778837     2.8154133304
H     -4.6209775681     0.0960792218     1.9039377301
C     -5.7893857421     2.1965010493     0.3540891960
H     -3.8597855349     1.3180844946    -0.1704722628
H     -3.7469629478     2.8279092373     0.7517982523
C     -6.6252020753     0.9618412796    -0.0280276751
H     -5.8284846654     2.9222768439    -0.4804393126
H     -6.2499674572     2.7053989901     1.2238153329
C     -8.0701642443     1.3351379985    -0.4213022444
H     -6.6572690124     0.2410117087     0.8104385771
H     -6.1480209560     0.4414313190    -0.8782094086
C     -8.8532462772     0.1274729681    -0.9385299159
H     -8.0438333572     2.0754750189    -1.2424402356
H     -8.5884334941     1.8094366375     0.4309869982
O     -8.5017809992    -0.4876457425    -1.9622577127
H      8.1679748925    -2.4994471563    -3.1060675415
H      7.8974539938    -1.9429687770     0.7556302935
H      9.9381012596    -2.4070661557    -1.5218126386
H     10.4405442878    -0.4055967612    -0.1070566209
H      5.8266263704    -2.3738701152    -2.7507744952
C      8.9302440773    -2.5569882275    -1.0888264699
C      8.9101885803    -1.9056647871     0.3134034031
C      9.4609747970    -0.4722230618     0.4008236417
C      6.4350923631    -2.5318488764    -1.8396076793
C      5.7202580336    -1.7503484078    -0.7354945786
C      7.8832145825    -2.0843269410    -2.1216699682
N      8.5622311901     0.5222104738    -0.1953536781
O      5.8663695126    -0.5167002531    -0.5884948059
H      9.5411640821    -2.5216024697     0.9804144319
H      7.9071039951    -0.9881830567    -2.2364247319
H      9.6428233119    -0.2145867858     1.4628867729
H      6.4015189918    -3.6146866214    -1.6254763401
H      8.8168651993    -3.6504379693    -0.9626347981
H    -12.5325310655    -1.9371193810    -1.6769935227
H    -10.1755038400    -2.0991493862    -1.0885539848
C    -13.0402780808    -0.0956961061    -0.6394208789
C    -12.0331590482    -0.9965642349    -1.3733483314
C    -10.7958760679    -1.3752797829    -0.5356059500
C      7.9095395964     2.7005103505    -1.0906828281
C      8.9674510995     1.7830159468    -0.4738951146
N     -9.9366165683    -0.2349383612    -0.2006375389
O     10.1294832329     2.1832902567    -0.2491828931
H    -11.6972164618    -0.5045079461    -2.3061135749
H    -11.1097746507    -1.8485266053     0.4121027179
H     -0.1758328424    -1.9073896889     0.9980615005
H      2.1738614952    -2.6589446881     0.2859042507
H      1.7454687405    -1.8465861106     2.6455280393
H      4.0755529146    -2.5859370973     1.9693924061
H     -0.5573778317    -1.1279830696     3.3740908105
C      1.7071444789    -1.1503783168     1.7847657083
C      2.5852961468    -1.6969790845     0.6465013991
C      4.0424961756    -1.9066718083     1.0992098342
C     -0.6395900943    -0.4346395358     2.5156645432
C     -2.1207452233    -0.3827696730     2.1365053101
C      0.2422624810    -0.9512497931     1.3614168056
N      4.8893078074    -2.4774363043     0.0476009304
O     -2.7241894481    -1.3926986955     1.7293691256
H      2.5696870593    -1.0010837117    -0.2132427951
H      0.1939065145    -0.2400982003     0.5141940530
H      4.4936036933    -0.9468010505     1.3980730731
H     -0.2833386517     0.5522809935     2.8603598368
H      2.1248611476    -0.1893609655     2.1440072641
H      4.8088412464    -3.4756380965    -0.1351403308
H     -2.1603183340     1.6115986443     2.6062109760
H    -10.1630492300     0.3132786597     0.6253391031
C      7.6353627622     3.9493284175    -0.2275149193
H      8.2984064643     3.0196684637    -2.0764545326
H      6.9720759976     2.1457106839    -1.2715807814
H      7.5845705367     0.2460722787    -0.3712882256
C      6.6585537933     4.9224318410    -0.9036234452
H      8.5951865267     4.4561329192    -0.0230881452
H      7.2304924543     3.6338365710     0.7527418579
H      6.4750286419     5.8081632031    -0.2713123788
H      5.6827140717     4.4428018212    -1.0986114454
H      7.0564884465     5.2763566378    -1.8711904951
C    -14.2634618703     0.2533155471    -1.5009554108
H    -12.5384055584     0.8376295019    -0.3204832913
H    -13.3703713882    -0.6015822720     0.2888789201
H    -14.9701473350     0.9017866529    -0.9548978892
H    -14.8113054087    -0.6567731160    -1.8051913448
H    -13.9635098096     0.7851615357    -2.4214520156
