84
nylon6 config_8330 from config_8330.mcos (coord_rad bohr -> angstrom)
N     -1.1684233475    -3.4994900411    -1.6703851385
C     -2.4448414453    -3.5030420371    -2.3921464798
C     -3.6373482330    -3.0158845208    -1.5454802406
H     -2.6251775083    -4.5356986655    -2.7324179536
H     -2.3266949785    -2.8649466626    -3.2861546341
C     -3.5480367246    -1.5390461502    -1.1268110341
H     -3.7243139090    -3.6575997164    -0.6483327088
H     -4.5578126947    -3.1775835416    -2.1386925845
C     -4.7532440941    -1.0862829030    -0.2865143091
H     -3.4673450076    -0.9057902085    -2.0328293181
H     -2.6210462804    -1.3707510002    -0.5449211796
C     -4.6486577955     0.3897736515     0.1483093109
H     -4.8377401097    -1.7168378511     0.6170078303
H     -5.6859996184    -1.2325775323    -0.8652808794
C     -5.7849292583     0.7976392610     1.0880875371
H     -4.6113103588     1.0478321681    -0.7379427938
H     -3.7049300475     0.5388534005     0.7059964114
O     -5.9679139096     0.2186417738     2.1751952097
H      5.2881185844     0.5088178999     0.1837018961
H      5.4171024997     3.3006293455     1.6640704494
H      7.4727260619     1.7647872792    -0.0674235136
H      4.4274086365     2.5499098600    -0.5247704484
H      7.4289815802    -0.8203579468     0.2724590017
C      6.8598942097     1.8764103020     0.8488656596
C      6.0701530343     3.1986484386     0.7766052511
C      5.2139837872     3.3197577804    -0.4994016097
C      6.8220949033    -0.6585988067     1.1810156899
C      5.9540104780    -1.8797199501     1.4859573782
C      5.9807328836     0.6275243342     1.0379682041
N      4.5373462729     4.6141781984    -0.6007852306
O      5.2831039614    -1.9579325072     2.5317800902
H      6.7787292016     4.0471047445     0.8090650451
H      5.3552874921     0.7473105586     1.9413197888
H      5.8526105559     3.1850924225    -1.3919572826
H      7.5227581240    -0.5434472036     2.0285971734
H      7.5763936525     1.9361128354     1.6902510508
H     -8.8206026475     2.9902798255    -0.3483815304
H     -7.8055930642     1.7587690825     2.3053344580
C     -9.5600197315     1.0161283101     0.2016186058
C     -8.9973088854     2.4021015179     0.5727985323
C     -7.6971792297     2.3759012763     1.3996809048
C      2.6965834881     6.2253372036    -0.5513557942
C      3.2030062527     4.7902368569    -0.4031452169
N     -6.5681105265     1.8196176912     0.6496970581
O      2.4296625578     3.8514979090    -0.1363051715
H     -9.7510242081     2.9656921296     1.1554408208
H     -7.4465364605     3.4032182808     1.7252595966
H      1.3241989713    -6.3753627878    -0.8252950510
H      4.0525159730    -3.7901301298    -1.1973462836
H      3.6980782083    -6.1626567579    -0.3761372380
H      5.7882097290    -4.9239975058     0.2636689188
H      0.5031174877    -4.5787582043     0.7604200713
C      3.0542244638    -5.3317977951    -0.0288681962
C      3.8437153026    -4.0148781366    -0.1339362230
C      5.1731675161    -4.0881310234     0.6421754308
C      0.6699138998    -4.3821769188    -0.3154871053
C     -0.6767226214    -4.5842635617    -1.0137705508
C      1.7458275274    -5.3549755362    -0.8436357141
N      5.9639114640    -2.8596550532     0.5432125210
O     -1.2715139770    -5.6772804512    -0.9836416661
H      3.2519683640    -3.1691249891     0.2608041691
H      1.9656744419    -5.1228033005    -1.9036232859
H      4.9778002362    -4.2660399132     1.7126020527
H      1.0030656404    -3.3344542204    -0.4071812088
H      2.8253835538    -5.5421350013     1.0341118998
H      6.5170700361    -2.7154179675    -0.2984396480
H     -0.6253129250    -2.6399662597    -1.6547581495
H     -6.3352658917     2.2530496111    -0.2421079636
C      1.7167729499     6.3773515807    -1.7346438987
H      2.1731761336     6.4788441361     0.3893034176
H      3.5369832113     6.9340399842    -0.6601304630
H      5.1066989248     5.4325757844    -0.8056421308
C      1.1207860043     7.7898827409    -1.8183441739
H      0.9105050011     5.6308329381    -1.6239056159
H      2.2435275839     6.1362373078    -2.6771019323
H      0.4244084655     7.8782752272    -2.6698455441
H      1.9092290093     8.5520777546    -1.9504940370
H      0.5624296246     8.0407803635    -0.8992544737
C    -10.0849426490     0.2128666294     1.4025714730
H     -8.7821832520     0.4344979920    -0.3284177480
H    -10.3788170560     1.1575749660    -0.5281160051
H    -10.5237115856    -0.7467706094     1.0786568799
H    -10.8684504921     0.7743813828     1.9424320570
H     -9.2838811900    -0.0209139284     2.1253158615
