84
nylon6 config_55770 from config_55770.mcos (coord_rad bohr -> angstrom)
N      1.2241218222    -1.7707148993    -1.4017192787
C      2.6665598098    -1.8828978151    -1.1704606852
C      3.0109468386    -2.1755396332     0.3039263787
H      3.1344961982    -0.9418862864    -1.5053417977
H      3.0406325392    -2.6976886977    -1.8123647449
C      4.5244467617    -2.3344068278     0.5530814883
H      2.4895829551    -3.1026928908     0.6036775283
H      2.6078067675    -1.3659661852     0.9420282922
C      5.3315924161    -1.0339588202     0.3897542975
H      4.9290244198    -3.1123356918    -0.1240250897
H      4.6751424022    -2.7160475707     1.5810861009
C      6.8191347086    -1.2258464489     0.7516268389
H      4.9059255704    -0.2485168049     1.0402181097
H      5.2613404127    -0.6611652836    -0.6494287247
C      7.5943430838     0.0924207562     0.7264278607
H      7.2830345067    -1.9715982021     0.0818120078
H      6.8940577982    -1.6206517711     1.7821606977
O      7.2869619241     1.0435139998     1.4688165274
H     -7.3839036329     1.1371726178     2.6446679037
H     -3.6684810860     1.5530014102     1.5896085324
H     -4.7272600805    -0.4415681965     2.4727611549
H     -5.0813749007     3.2817465121     2.7821815975
H     -8.3749989592    -0.5691452029     1.2491441049
C     -5.2892702001     0.5055820311     2.5845779261
C     -4.7728407682     1.5164324680     1.5403088639
C     -5.3222449384     2.9403205129     1.7589676508
C     -7.2704998870    -0.5112190819     1.2481631937
C     -6.7667962646    -1.9562108600     1.1598035383
C     -6.8023253553     0.2045106041     2.5308617766
N     -4.7741212483     3.9097881273     0.8077478829
O     -6.8625241835    -2.7441736168     2.1180071003
H     -5.0234768196     1.1871123952     0.5153444122
H     -7.0703603949    -0.4309878580     3.3932656306
H     -6.4169808206     2.9635671344     1.6415265083
H     -6.9868945861     0.0569922342     0.3456150430
H     -5.0407783912     0.8796870181     3.5962227023
H     11.3549694503     0.2493103763     0.0369553897
H      9.6643697038     1.4836898902    -1.3963261018
C     11.7551042325     2.3825979205     0.2132732413
C     10.8447643422     1.1584454638     0.4096867509
C      9.4959965186     1.3179383878    -0.3169161557
C     -4.7112675540     5.4082829342    -1.1266251937
C     -5.4510336733     4.3683292202    -0.2787870071
N      8.6208630754     0.1538086162    -0.1632286966
O     -6.6050493127     3.9958473310    -0.5598444513
H     10.6563469404     0.9968894099     1.4881021679
H      8.9498582085     2.1895095954     0.0795866438
H     -1.6578827329    -4.3746463402    -1.0705271726
H     -4.0466452547    -4.9574073509    -0.2736358907
H     -3.6832713834    -3.3680856652    -2.1943034298
H     -6.3244873294    -4.3642197327     0.3331435766
H     -1.3323026354    -2.7742321276    -2.9943907771
C     -3.4055639497    -3.0796117599    -1.1610534892
C     -4.2605538628    -3.8769194321    -0.1624137321
C     -5.7794387916    -3.6816595705    -0.3385473901
C     -1.0438219888    -2.4961433452    -1.9640459862
C      0.4470453114    -2.8040437934    -1.8224878058
C     -1.8974076950    -3.3008026651    -0.9608299631
N     -6.2404824651    -2.3219346971    -0.0400193952
O      0.9069503260    -3.9338166837    -2.0726518012
H     -3.9831408456    -3.6060371265     0.8738283344
H     -1.6162161482    -3.0158347725     0.0713104499
H     -6.0737055502    -3.9169142254    -1.3772180112
H     -1.2380424983    -1.4150757053    -1.8478334647
H     -3.6311944051    -1.9995149448    -1.0669782225
H     -6.1953286692    -1.6243497983    -0.7784677024
H      0.7759696581    -0.8812453460    -1.1947751764
H      8.8241090208    -0.6710932814    -0.7231136236
C     -4.7446871009     5.0814147302    -2.6326205614
H     -5.2202802807     6.3735160391    -0.9462403289
H     -3.6683406527     5.5232516898    -0.7813857684
H     -3.8222405331     4.2371280404     0.9566975904
C     -3.9215083440     3.8390496104    -3.0053918202
H     -4.3672186760     5.9597729456    -3.1868247226
H     -5.7969462111     4.9443756688    -2.9382450930
H     -4.3131700459     2.9313476568    -2.5124131897
H     -2.8656864491     3.9551454344    -2.7028658708
H     -3.9417767208     3.6597527995    -4.0938706988
C     13.1074195914     2.2387718004     0.9290634309
H     11.2339215048     3.2874553938     0.5806327891
H     11.9225878540     2.5427796966    -0.8692674504
H     12.9708796586     2.1125771135     2.0179339582
H     13.7430732031     3.1272403248     0.7722177890
H     13.6633201558     1.3592690719     0.5579707674
