84
nylon6 config_10270 from config_10270.mcos (coord_rad bohr -> angstrom)
N     -1.0870886054    -3.9205168798    -0.9793540365
C     -2.1505960599    -3.6112939123    -1.9380083177
C     -3.3697149897    -2.9263141375    -1.2905979029
H     -2.4701800632    -4.5488284916    -2.4292159858
H     -1.7011596038    -2.9640224717    -2.7085656822
C     -3.0789083373    -1.5115945391    -0.7625279837
H     -3.7490468587    -3.5611176768    -0.4656830209
H     -4.1712330441    -2.8994937918    -2.0518064156
C     -4.2485666263    -0.8747856719     0.0132431144
H     -2.7918009444    -0.8552151394    -1.6074946682
H     -2.1996094794    -1.5528720793    -0.0931487509
C     -5.4787836325    -0.5625332672    -0.8670700023
H     -3.9003241287     0.0638374709     0.4836857032
H     -4.5599658247    -1.5440187042     0.8357300472
C     -6.6408143475    -0.0053623517    -0.0440029722
H     -5.8485376155    -1.4885728646    -1.3428724993
H     -5.1969654413     0.1329990443    -1.6776516524
O     -7.1849301973    -0.6769446982     0.8524876507
H      6.4671355689    -0.8915471678     2.1375114150
H      8.4847734383    -0.2258766145    -1.1289650505
H      8.2672820806     0.5060876029     1.1914310789
H      5.5169781885    -1.1026692331    -1.0586356757
H      6.3491170092     1.2736909521     3.2953415188
C      7.3362016854     0.4003593906     0.6041075588
C      7.5894450059    -0.5608667248    -0.5724551023
C      6.4059129024    -0.6887680705    -1.5582606636
C      5.6819444352     1.1283173984     2.4314642952
C      4.2642956693     0.9249056625     2.9797944403
C      6.1727873077    -0.0221819927     1.5208533105
N      5.9977475307     0.5871156122    -2.1560388980
O      4.0246609944     0.8558905284     4.2017677378
H      7.8192089079    -1.5778848998    -0.2009967795
H      5.3295404685    -0.3502257251     0.8913596059
H      6.6807918923    -1.3777290477    -2.3761567329
H      5.6856146672     2.0690886781     1.8480101342
H      7.1198002249     1.4064907000     0.1964270808
H     -9.7221338675     1.0472937086    -0.8259214178
H     -8.3339674186     1.4203604861     1.2430259437
C    -10.5196165079     2.8638378695     0.0865238717
C     -9.3761658734     2.0681788000    -0.5747471788
C     -8.1199096173     1.9694958795     0.3131796258
C      4.6381815904     2.5754246318    -2.5765157423
C      4.8793985747     1.2748212452    -1.8122775601
N     -7.0187735194     1.2654419451    -0.3472910105
O      4.0822781799     0.8830396807    -0.9332256421
H     -9.0966764099     2.5502126206    -1.5303751629
H     -7.7745230645     2.9833549084     0.5874020555
H     -0.0225206066    -3.0588062901     1.7404567872
H      0.3814572030    -0.7740722466     2.8935873798
H      0.8325190241    -1.0669833212     0.4312270092
H      1.6904692618     1.2191803496     3.3213485496
H      2.1410379651    -3.8425056299    -0.3280106969
C      1.4672031619    -1.5697284229     1.1859120931
C      1.4173765519    -0.7767786381     2.5018210016
C      1.8712816459     0.6909474663     2.3703853268
C      1.1147479712    -3.8870882199     0.0726273592
C      0.1781975973    -3.4198165048    -1.0453066683
C      1.0162247982    -3.0289779364     1.3589509946
N      3.2892831806     0.8516750055     2.0353796124
O      0.5446870918    -2.6224766305    -1.9287766743
H      2.0413335219    -1.2738720457     3.2684231823
H      1.6416299380    -3.5122022353     2.1331371670
H      1.2850406708     1.1982915321     1.5834285581
H      0.8986968636    -4.9408898619     0.3243782815
H      2.4973173397    -1.5559550883     0.7806284768
H      3.5518771081     0.9072534917     1.0448043622
H     -1.2972454266    -4.5979823684    -0.2480191388
H     -6.5349148809     1.7443131023    -1.1037657640
C      4.5934547524     3.8043249327    -1.6440198334
H      5.4011038704     2.7201386316    -3.3617567041
H      3.6613245055     2.4686189345    -3.0844608585
H      6.5942166783     0.9812004229    -2.8811121676
C      4.2412415502     5.0934416922    -2.3997993031
H      5.5734006480     3.9184368094    -1.1437275959
H      3.8525444822     3.6160924350    -0.8473943789
H      4.2153423386     5.9596991355    -1.7167879834
H      3.2505057713     5.0142981824    -2.8811817322
H      4.9816022945     5.3123044173    -3.1897685478
C    -11.1329163548     2.1774890430     1.3184340301
H    -11.3116527137     3.0315342251    -0.6669312680
H    -10.1495091151     3.8697808811     0.3643873985
H    -10.4059623028     2.0743111964     2.1425362075
H    -11.4975989938     1.1656828760     1.0659919979
H    -11.9892999050     2.7539876435     1.7090053943
