84
nylon6 config_87690 from config_87690.mcos (coord_rad bohr -> angstrom)
N     -5.5680082268    -0.4113109791    -1.9783755009
C     -5.6831939880     0.9760794892    -2.4373451681
C     -4.3173875020     1.5498299641    -2.8523504301
H     -6.1352235728     1.5522415075    -1.6142089189
H     -6.3835520695     1.0351555545    -3.2932405639
C     -3.2658413068     1.6186475355    -1.7275055889
H     -4.4941165504     2.5612217634    -3.2643178314
H     -3.9177476215     0.9469428416    -3.6905793781
C     -3.6026943817     2.6152381307    -0.6051078909
H     -2.2932518197     1.8920388996    -2.1792180696
H     -3.1226386457     0.6121171096    -1.2900776034
C     -2.5556760496     2.6277695001     0.5278169797
H     -4.5842167456     2.3701722612    -0.1593874526
H     -3.6925571146     3.6339307092    -1.0251426859
C     -1.2085557117     3.2094304024     0.0865863222
H     -2.4205084544     1.6128693075     0.9400006398
H     -2.9162630612     3.2732442868     1.3499987640
O     -1.1316350544     4.3518277087    -0.4102095103
H      0.4339015317    -2.9926450688    -0.6379752327
H      3.8049208102    -1.2617623479    -0.6564612920
H      2.6314528566    -3.3051987811    -1.5938973713
H      5.1652811592    -3.1366713898    -1.6264707568
H      1.0727775843    -3.1439762608     1.8244013559
C      2.5954242659    -3.0695403786    -0.5129526419
C      3.8382095922    -2.2410785087    -0.1434860882
C      5.1349972223    -2.9752062355    -0.5365710457
C      0.9849068531    -2.1772396038     1.2971221347
C     -0.3827362685    -1.5492521078     1.5473861632
C      1.2500646521    -2.3791745712    -0.2132413020
N      6.3480589143    -2.2393337533    -0.1751554527
O     -0.6253403766    -0.3603935298     1.2475134498
H      3.8601245231    -2.0324603454     0.9421473448
H      1.2060415753    -1.3995309158    -0.7226716950
H      5.1708892502    -3.9641817209    -0.0443630251
H      1.7365964791    -1.4938058808     1.7277555914
H      2.6315294270    -4.0432429347     0.0140590331
H      3.2018818047     2.9670496104     0.8397162149
H      1.6434128071     2.1029992769    -0.7916569983
C      1.8208784664     3.8525206922     2.2725284994
C      2.1680220844     2.8024008103     1.1993432777
C      1.2409040933     2.8010249595    -0.0336200505
C      8.3680340662    -0.8939938366    -0.4905817829
C      7.1014797534    -1.5382793007    -1.0644006264
N     -0.1320574386     2.4085854455     0.2912780686
O      6.8079878703    -1.4455760543    -2.2701948410
H      2.1553327335     1.7926823462     1.6518895738
H      1.1872169175     3.7993233057    -0.4955957355
H     -7.2102387684    -2.4975769866     1.1128176562
H     -3.6279191919    -3.6948441978     1.3988709779
H     -5.3796994929    -2.3827929500     2.6997624396
H     -2.9649556446    -2.2727728139     3.3801761159
H     -5.1508172319    -2.7629459803    -1.1735069096
C     -5.1401601082    -2.1442414531     1.6457693556
C     -3.6980141124    -2.5910923135     1.3494797484
C     -2.7027682603    -1.9717325493     2.3497661275
C     -6.1197177724    -2.4502684809    -0.7476249745
C     -6.3775433194    -0.9669821623    -1.0383982878
C     -6.2120469103    -2.7986526299     0.7502533579
N     -1.3171991054    -2.3683054723     2.0890784185
O     -7.2787857897    -0.3270776118    -0.4658955372
H     -3.3993618318    -2.2981380213     0.3266518750
H     -6.1565154241    -3.8983302870     0.8544688464
H     -2.7375877665    -0.8718176412     2.2962671207
H     -6.8978619168    -3.0151793189    -1.2953499436
H     -5.2092820198    -1.0426389965     1.5614780184
H     -1.0503341571    -3.3276108946     2.3010868354
H     -4.8760466243    -1.0043217117    -2.4332624652
H     -0.2819000106     1.4577195970     0.6532613226
C      8.5398044886     0.5753772294    -0.9220281243
H      8.3827471830    -0.9757681162     0.6109426562
H      9.2171772709    -1.4928572125    -0.8699759568
H      6.6402536276    -2.2528597226     0.7993934252
C      7.5004748720     1.5191714296    -0.2985582895
H      8.4847744125     0.6261362024    -2.0237461543
H      9.5573457756     0.9029055917    -0.6417321166
H      6.4744473428     1.2532715181    -0.6095157953
H      7.6781876620     2.5646257127    -0.6031939655
H      7.5371401256     1.4791137780     0.8045096002
C      2.0543593449     5.3044596824     1.8246139548
H      2.4296526035     3.6458118418     3.1725073894
H      0.7676813389     3.7208667634     2.5851003319
H      1.4066067391     5.5802129069     0.9744557784
H      3.1027032039     5.4586299280     1.5115762420
H      1.8418024088     6.0136629304     2.6434037677
