84
nylon6 config_99080 from config_99080.mcos (coord_rad bohr -> angstrom)
N     -4.1113594811    -2.5075494375     0.3532332188
C     -5.3589211922    -2.2246732618    -0.3592515331
C     -6.5864534014    -2.8563175562     0.3271420362
H     -5.2681463414    -2.6092255699    -1.3916585932
H     -5.4523671181    -1.1289926859    -0.4115368087
C     -7.8933488369    -2.6489331692    -0.4641020599
H     -6.6888730683    -2.4373060323     1.3460632578
H     -6.4034785804    -3.9399965604     0.4498241672
C     -8.3731313315    -1.1874739764    -0.5150699600
H     -8.6855100398    -3.2730767053    -0.0077611377
H     -7.7627501310    -3.0279945868    -1.4968569378
C     -9.7189296578    -1.0455334425    -1.2556882668
H     -7.6287172002    -0.5485857502    -1.0217550715
H     -8.4769283988    -0.7997251221     0.5167189100
C    -10.1409208278     0.4161772185    -1.4167987997
H    -10.5013217585    -1.6301816131    -0.7401207628
H     -9.6184435102    -1.4620394798    -2.2756519803
O     -9.4255410741     1.2356982635    -2.0224294291
H      6.6863183689    -0.1634734345     0.2906760895
H      9.2405556466     0.2463571757     0.1812576586
H      7.6079587228     2.0666785625    -0.4735144551
H     10.1604751636     2.4591212789    -0.5739132044
H      5.0406921339     1.6390912069    -0.3386678778
C      7.7230962386     1.1558976245    -1.0935478697
C      9.1242840310     0.5616954498    -0.8725946299
C     10.2360691375     1.5696413563    -1.2205192615
C      5.1948779569     0.7643394818    -0.9950546258
C      4.0829762074    -0.2680421092    -0.8033862143
C      6.5962444498     0.1626300559    -0.7635437156
N     11.5822497562     1.0214707449    -1.0440209157
O      4.0138028603    -1.2912674614    -1.5094687050
H      9.2484295990    -0.3467929309    -1.4924610358
H      6.7012976605    -0.7436516677    -1.3872895304
H     10.1314833795     1.9004112935    -2.2697225674
H      5.1197581936     1.1214384440    -2.0392066194
H      7.6225938979     1.4830282327    -2.1470750980
H    -12.7294492996     2.0537598592     1.1129326054
H    -11.2695165539     2.6971528250    -1.5392991917
C    -10.7924246171     3.0445448133     1.2028872131
C    -12.1107405799     2.7212943397     0.4808837598
C    -11.9327284715     2.0822356177    -0.9092997622
C     13.7633090026     0.6450598324     0.0002489230
C     12.3729020661     1.2886231568     0.0297651374
N    -11.3349029376     0.7453257368    -0.8541820748
O     12.0123038698     2.0272639932     0.9642618647
H    -12.6992342223     3.6495307506     0.3475978021
H    -12.9126898720     2.0124013078    -1.4162870723
H     -1.2156659070    -0.1854579408     1.8372257955
H      0.9227271300    -0.3309483761    -1.2632063655
H     -1.2889485863    -0.9960099231    -0.5579747973
H      2.2928407809    -1.8729331305     0.1649171503
H     -1.9837776342    -3.1616430786     1.5366721902
C     -0.4616207159    -1.2850131374     0.1184523380
C      0.7474751895    -0.3737582635    -0.1727656287
C      2.0469444560    -0.8532746644     0.5049093140
C     -2.1954345257    -2.1169946068     1.8263159946
C     -3.4494203762    -1.5970257064     1.1162364093
C     -0.9609292406    -1.2281310871     1.5738915123
N      3.1953249845     0.0006501902     0.1908020885
O     -3.8301435265    -0.4191203961     1.2448385161
H      0.5257882876     0.6612974658     0.1514220214
H     -0.1631889367    -1.5464299295     2.2690264730
H      1.9353727087    -0.8773008251     1.6022197503
H     -2.4293756394    -2.1218344710     2.9069063341
H     -0.2065130060    -2.3310350940    -0.1425346305
H      3.3028738533     0.8662323351     0.7144917027
H     -3.7388136842    -3.4530024266     0.3009224776
H    -11.8642442649     0.0104193795    -0.3886243487
C     14.1290283078    -0.0463431751     1.3282296702
H     13.8449604351    -0.0679649934    -0.8394687929
H     14.4794360991     1.4638936702    -0.2000576817
H     11.9343812539     0.3863842389    -1.7566829278
C     13.2876099682    -1.2991079577     1.6159197406
H     14.0128228260     0.6843210244     2.1479718083
H     15.2003813753    -0.3153259253     1.2955524013
H     12.2154663852    -1.0521363056     1.7148151051
H     13.6037537100    -1.7841342320     2.5551527026
H     13.3868821826    -2.0410732528     0.8038992802
C    -11.0138185275     3.6640717815     2.5913787064
H    -10.1965433294     3.7359174067     0.5765019691
H    -10.1914403297     2.1212657821     1.3013657848
H    -11.5850296935     2.9815431846     3.2457231120
H    -11.5794039062     4.6108203398     2.5224732582
H    -10.0554103275     3.8837987608     3.0927229252
