84
nylon6 config_69310 from config_69310.mcos (coord_rad bohr -> angstrom)
N     -3.8074574984     0.1456163700    -1.1045247428
C     -4.6292869792    -0.8239214748    -1.8356739646
C     -6.0875648512    -0.3643077228    -2.0450740689
H     -4.5917148296    -1.7774274257    -1.2816472113
H     -4.1504728015    -0.9866117322    -2.8151856443
C     -6.9083137087    -0.1807827388    -0.7532508701
H     -6.5834000774    -1.1089419980    -2.6972992375
H     -6.0729385585     0.5858268207    -2.6095053729
C     -7.2037221975    -1.4933030840    -0.0072855738
H     -7.8619074469     0.3151803340    -1.0123362079
H     -6.3862247585     0.5199022950    -0.0727851714
C     -8.0439580223    -1.3089702355     1.2816116521
H     -6.2586466235    -1.9873657674     0.2851503705
H     -7.7201578788    -2.1962257803    -0.6880053735
C     -9.4478216331    -0.7542508142     1.0203450274
H     -7.5410098398    -0.6015102437     1.9610770160
H     -8.1210843369    -2.2793917069     1.8045191044
O     -9.7256496879     0.4520139640     1.1579296630
H      6.4404388211     0.9156803767     1.4165863901
H      8.5104332198    -0.5610933914     0.9013137017
H      8.7192697402     1.9550349678     1.0697337463
H     10.7759581358     0.4702468115     0.5500580050
H      6.7006959442     3.4209530049     1.5762676205
C      8.1735998734     1.4855385898     0.2279714254
C      8.7028712185     0.0587323816     0.0053889465
C     10.2130334120     0.0475796410    -0.2981812358
C      6.1403296593     2.9543018291     0.7447941784
C      4.6640395588     2.9710906292     1.1427369104
C      6.6640397166     1.5207932211     0.5191778055
N     10.7386769393    -1.2980043988    -0.5361731506
O      4.2617562524     2.4137865908     2.1808304650
H      8.1584308135    -0.4161354173    -0.8331338095
H      6.1142113334     1.0571664441    -0.3225836115
H     10.4244914154     0.6652323440    -1.1897836828
H      6.3148078897     3.5710112663    -0.1547534501
H      8.3921233647     2.1022023644    -0.6661353017
H    -12.3737598567    -1.0330969893     2.3116822136
H    -11.7833908625    -0.2806236023    -0.0051871349
C    -14.1779077859    -1.2684913400     1.1122822874
C    -12.7127103678    -1.6218967200     1.4396469518
C    -11.7491091071    -1.3481602301     0.2675780389
C     11.8728303202    -3.4105424516    -0.0502085231
C     11.4232768815    -2.0178548988     0.3929271718
N    -10.3568919824    -1.6708941336     0.5902131046
O     11.6880411514    -1.5770558749     1.5268532015
H    -12.6409232338    -2.6878957707     1.7300348668
H    -12.0351360848    -1.9359358947    -0.6213793562
H     -0.4329259746     0.8295712475    -0.7346036615
H      1.9154766154     1.6965207982    -0.0948176749
H     -0.1644445164     2.7255727565     0.9191157489
H      2.1891970905     3.5715351946     1.5572967447
H     -2.5193269470     1.8307068747     0.2721387615
C      0.0745075036     2.8630371721    -0.1538168616
C      1.5916969030     2.7200211280    -0.3614805059
C      2.3859702916     3.7333675458     0.4848475026
C     -2.2582374589     2.0148309701    -0.7851183971
C     -3.0594454787     1.1034107798    -1.7152948142
C     -0.7369239637     1.8622500813    -0.9934997821
N      3.8334339885     3.6291788559     0.2904298626
O     -3.0081083793     1.2265815054    -2.9530677638
H      1.8392224290     2.8642640652    -1.4305283672
H     -0.5091002995     2.0017684245    -2.0660896746
H      2.0768137738     4.7634828130     0.2321368787
H     -2.5561041380     3.0534562520    -1.0207965994
H     -0.2384709434     3.8936820587    -0.4121567114
H      4.2319310451     4.0424518722    -0.5495677694
H     -3.8016991433     0.1042601273    -0.0884751454
H    -10.0740851149    -2.6475528231     0.5416155619
C     13.4099667037    -3.5484897432    -0.0729236704
H     11.4539351808    -4.1289282382     0.6790766582
H     11.4535792000    -3.6663332681    -1.0397250002
H     10.5446709010    -1.7323695254    -1.4355864592
C     13.8604946793    -4.9768959948    -0.4107805865
H     13.8062030405    -3.2483546392     0.9131734536
H     13.8287322358    -2.8388968830    -0.8111465104
H     14.9612250248    -5.0545807096    -0.4236203232
H     13.4913460389    -5.2910735448    -1.4033131788
H     13.4805791443    -5.6997945799     0.3325526405
C    -14.8264184670    -2.1786798631     0.0556021790
H    -14.2323207598    -0.2133399399     0.7812916279
H    -14.7680974056    -1.3222876972     2.0461724981
H    -14.3382603737    -2.0879789839    -0.9302060642
H    -15.8919452339    -1.9270965690    -0.0845864092
H    -14.7702893814    -3.2391926724     0.3600391240
