41
LVDGGZAZAYHXEY-UHFFFAOYSA-N optimised
O        6.813750      1.370910     -0.149442
C        6.160419      0.497681      0.365003
O        5.975886      0.311052      1.687433
C        5.430220     -0.598526     -0.471178
F        6.307196     -1.026802     -1.424822
F        5.082979     -1.671386      0.291325
C        4.157202     -0.097273     -1.252787
F        4.573020      0.866381     -2.120147
F        3.676076     -1.141700     -1.976049
C        2.972929      0.562888     -0.444326
F        3.515735      1.628562      0.225432
F        2.098078      1.043760     -1.365176
C        2.136909     -0.219352      0.649032
F        2.988077     -0.547970      1.657793
F        1.240032      0.685274      1.134581
C        1.343174     -1.545009      0.314083
F        0.817068     -1.969981      1.494971
F        2.247679     -2.475427     -0.095563
C        0.188060     -1.577404     -0.768272
F       -0.254412     -2.864801     -0.774467
F        0.758806     -1.316802     -1.976808
C       -1.097827     -0.642645     -0.708752
F       -0.707200      0.650454     -0.844726
F       -1.816862     -0.997871     -1.812072
C       -2.050696     -0.757723      0.532164
F       -1.345668     -0.434900      1.652085
F       -2.481666     -2.039000      0.642524
C       -3.320398      0.207172      0.577065
F       -2.873401      1.483301      0.718020
F       -3.982449     -0.152317      1.713494
C       -4.337714      0.172589     -0.616840
F       -4.551489     -1.124028     -0.974736
F       -3.795828      0.840609     -1.669078
C       -5.779254      0.780483     -0.354687
F       -6.446673     -0.013602      0.520822
F       -6.416322      0.729134     -1.558183
C       -5.886271      2.259324      0.158230
F       -5.168430      3.091425     -0.620971
F       -7.179451      2.635577      0.118666
F       -5.451536      2.360675      1.429431
H        6.460251      1.037265      2.137464
