158
pc config_260 from config_260.mcos (coord_rad bohr -> angstrom)
C      4.9731412364     3.5341467827     0.6040611615
C      5.9208811331     2.9244990900     1.4240530935
C      6.5222224417     3.6382059232     2.4792142865
C      6.1484472756     4.9773542902     2.6735182885
C      4.6030324215     4.8640740251     0.8127004773
C      5.1996532069     5.5859173835     1.8438112225
C      2.5961399233     6.0660411928     0.3714524005
O      3.7057042032     5.4353756897    -0.1060690541
O      2.2781760012     6.2211929188     1.5252626230
H      4.5103602138     2.9800350861    -0.2181303865
H      6.5957822440     5.5689984244     3.4771600238
C     10.6034337508     0.9410306153     1.0219723508
C     10.3184863647     2.2984195724     0.8630981419
C      9.3153661899     2.9054298793     1.6167619619
C      8.5791326921     2.1642754967     2.5622193927
C      8.8844798233     0.8036876911     2.7215659515
C      9.8936699013     0.1995875236     1.9632616049
H     10.8896672435     2.8754444728     0.1291104468
H      8.3370731815     0.1930892405     3.4448939988
H     10.1113475996    -0.8634378068     2.0954542960
H      9.0939064855     3.9668159333     1.4611916890
C      7.5105802676     2.8950105787     3.4102478086
C      6.6862563290     1.9101008099     4.2800750025
H      6.1834084062     1.1430449769     3.6696073658
H      5.9076423998     2.4659607520     4.8265164630
H      7.3242600974     1.4024418204     5.0244846368
C      8.2468895238     3.8645650809     4.3712834549
H      8.7960612009     4.6490032648     3.8260531719
H      8.9759038269     3.3010272432     4.9755908435
H      7.5403876715     4.3519483811     5.0650130634
O     11.6877739546     0.4151367513     0.2962260325
H      6.2021189743     1.8827596020     1.2363093119
H      4.9173829819     6.6281549484     2.0126404708
H    -10.0287059614     3.6412919644     0.6826436248
C    -10.0862278177     2.7146264071     0.1066023500
H    -11.3391454477     1.7463506703     1.5583513066
H    -12.6884414853    -1.0836322948    -1.6226981325
C    -10.8207258311     1.6311846570     0.6022481359
O     -8.7270058720     3.6753527987    -1.7071746110
C     -9.4011279561     2.6014236581    -1.1018371764
C    -12.9823687041    -0.8808674152    -0.5802807608
H     -9.3200366525    -1.1696826726     1.5290258587
H    -13.5354875550     0.0720125432    -0.5670608421
H     -7.9403100273    -3.2142536613     1.6403884175
C     -9.6733061883    -2.0806191145     1.0336396390
H    -13.6732095964    -1.6765344352    -0.2510499263
C     -8.8919546842    -3.2335045391     1.1054607446
C    -10.8994442259     0.4235308798    -0.1084970599
C    -11.7531782679    -0.7790041032     0.3602741002
C     -9.4804522701     1.4083334656    -1.8225667528
C    -10.8987560625    -2.0691935075     0.3387690745
C    -10.2115767167     0.3273181088    -1.3341305061
C     -9.3065741156    -4.4003237758     0.4545428729
O     -8.6410711279    -5.6324651945     0.5537864896
H     -8.9446388100     1.3326861176    -2.7740590763
C    -11.3106884110    -3.2507841610    -0.2962307107
C    -10.5193154946    -4.4022723367    -0.2308693774
C     -7.2853932944    -5.6884921478     0.4349931123
C    -12.2855540018    -0.5871309477     1.8047845788
H    -10.2407652767    -0.6052365066    -1.9077336504
H    -11.4690373171    -0.4330702569     2.5282539907
H    -12.2538981759    -3.2894325914    -0.8484370408
H    -12.9735586533     0.2738750114     1.8665518354
O     -6.5201577551    -4.7729284077     0.2544778631
H    -10.8398924905    -5.3239852278    -0.7265768856
H    -12.8432298786    -1.4859711626     2.1135628445
H     -6.0101358896    -8.7791464054    -1.0832728519
C     -5.2611812123    -8.3974404339    -0.3820858126
H     -3.7013154260    -9.6863574823    -1.1147938611
H     -1.8698896456   -10.7988895181    -0.6371572198
C     -3.9564677000    -8.9035008379    -0.3951014314
O     -6.9801799996    -7.0117162011     0.5508717357
C     -5.6280553029    -7.3948965455     0.5104320964
C     -1.2240018116    -9.9042022620    -0.6126410131
H      0.5639428950    -8.5055498781     2.3967539890
H     -0.1797490405   -10.2466711460    -0.5337195013
H      2.2409856019    -6.6811204368     2.2796527685
C      0.4965934233    -7.7707719740     1.5896020895
H     -1.3306867218    -9.3699985567    -1.5705241830
C      1.4469426507    -6.7458769727     1.5290776606
C     -2.9958072700    -8.4160260894     0.5043652383
C     -1.5637268183    -8.9957977379     0.5979270807
C     -4.6833424752    -6.9074344420     1.4177316493
C     -0.5252096758    -7.8492873875     0.6311729764
C     -3.3813092563    -7.4047958297     1.4068393386
C      1.4030943003    -5.7888697956     0.5186177696
O      2.3333301451    -4.7397375961     0.5905110901
H     -4.9605734114    -6.1173948703     2.1207244156
C     -0.5670699476    -6.8679057921    -0.3791410170
C      0.3794238678    -5.8456939719    -0.4323026410
C      3.0092841025    -4.3703107944    -0.5347374028
C     -1.4987586431    -9.8741034130     1.8753537977
O      3.8298050241    -3.3611755111    -0.1324772127
H     -2.6489384768    -6.9994668148     2.1134208525
H     -2.2841579885   -10.6457310786     1.8319515831
H     -1.3659249077    -6.8918440903    -1.1282881480
H     -0.5254101369   -10.3882618303     1.9587565734
O      2.9096758223    -4.8437027583    -1.6403831475
H      0.3298272178    -5.0973370960    -1.2264913360
H     -1.6604016770    -9.2815000352     2.7902864806
H      1.2928173305     8.6758908379    -1.9481275334
C      0.4737537344     8.2853241319    -1.3362657973
H     -0.9036571846     9.8303857640    -1.9253245225
H     -3.2121104906     9.9264862219    -2.5027735920
C     -0.7689344546     8.9291102923    -1.3203523113
C      0.6890501746     7.1344415402    -0.5828070585
C     -3.3577906924    10.2667919216    -1.4649729266
H     -3.3918636893     7.4441811615    -2.6043592731
H     -2.6353044091    11.0755281093    -1.2584615265
H     -5.1849354160     5.8172391255    -3.1748098582
C     -4.2455602171     7.3194396042    -1.9296006711
H     -4.3710518587    10.6933599789    -1.3906673730
C     -5.2443499072     6.4032349836    -2.2521647999
C     -1.8239183007     8.4216736913    -0.5471307817
C     -3.2080747645     9.1068257343    -0.4466000277
C     -0.3567041065     6.6138266052     0.1850414625
C     -4.3193366503     8.0696926146    -0.7393442829
C     -1.5949865193     7.2525477250     0.2058592379
C     -6.3295104242     6.1982999563    -1.3975307204
O     -7.3345812021     5.3210432463    -1.8378331272
H     -0.1999020257     5.7089475286     0.7769271846
C     -5.4228740797     7.8674731262     0.1034678241
C     -6.4250115720     6.9471452847    -0.2259172931
C     -7.8065806464     4.3710307109    -0.9826523316
C     -3.3373112143     9.7125012650     0.9751610668
H     -2.4055268108     6.8208659396     0.8028418101
H     -2.4996500671    10.4047577128     1.1574747209
H     -5.5177257399     8.4304088345     1.0364191259
H     -4.2762573547    10.2828813785     1.0833156169
O     -7.4750083752     4.1808195933     0.1620841858
H     -7.2673810711     6.7950598269     0.4528843355
H     -3.3079557196     8.9376444374     1.7577652679
O      1.9249633720     6.4856749783    -0.7379348963
C      4.1918404558    -2.2065080007    -2.2738552645
C      4.6723211359    -2.7457614648    -1.0773737628
C      6.0093499785    -2.5733217148    -0.7148547254
C      6.8857287634    -1.8785126637    -1.5536740222
C      6.4089625806    -1.3475940704    -2.7575181121
C      5.0667853168    -1.5158275089    -3.1172909577
H      6.3563624701    -2.9960835880     0.2329319171
H      4.6888747261    -1.0998438279    -4.0576700258
H      3.1450113869    -2.3435255720    -2.5543627856
H      7.9330472326    -1.7510781804    -1.2587729124
H      7.0874917241    -0.8000268234    -3.4207848634
C     11.4951803555    -0.7114602362    -0.4415702891
O     10.4689721834    -1.3354515925    -0.5758630703
O     12.7081069489    -0.9846924400    -0.9955144894
C     12.8447366947    -2.1117384334    -1.8260399803
C     13.9341265489    -2.9483074624    -1.5745897405
C     14.1915172029    -4.0369438723    -2.4120991845
C     13.3566524647    -4.2824687316    -3.5075586062
C     12.2698635281    -3.4386114298    -3.7623307810
C     12.0174805356    -2.3465527686    -2.9270539524
H     14.5753394547    -2.7338801665    -0.7144415399
H     15.0472495564    -4.6888566172    -2.2059910221
H     13.5527500928    -5.1356514011    -4.1658783816
H     11.6133892926    -3.6221003528    -4.6195691091
H     11.1685488452    -1.6872808075    -3.1208289528
