158
pc config_8680 from config_8680.mcos (coord_rad bohr -> angstrom)
C     12.5721919162    -0.6957044597    -0.8558918409
C     12.7732891315     0.5493269018    -1.4481208219
C     11.9055047056     1.6241495229    -1.1715256939
C     10.8454584410     1.4066856575    -0.2779476327
C     11.5085953483    -0.9028527042     0.0259667483
C     10.6519164300     0.1559673133     0.3205061056
C     10.2340493417    -2.7972327289     0.7291989298
O     11.4362460336    -2.1610076643     0.6456288077
O      9.1651552486    -2.4082435383     0.3257675425
H     13.2503577577    -1.5285738592    -1.0661523673
H     10.1530192902     2.2157872638    -0.0293222577
C     16.2220861924     4.3610789997    -1.2901681547
C     15.4256765367     3.9658768942    -0.2112207972
C     14.1276265589     3.5090790383    -0.4321600614
C     13.5951661448     3.4245499382    -1.7341658584
C     14.4102551472     3.8099210526    -2.8093244354
C     15.7119675825     4.2707119808    -2.5820592575
H     15.8168555654     4.0270562999     0.8071684832
H     14.0422288662     3.7537915052    -3.8376348076
H     16.3498503865     4.5651694028    -3.4213958535
H     13.5206884524     3.1959829721     0.4243030315
C     12.1269432650     2.9675160375    -1.9079926958
C     11.2127835048     4.0917042400    -1.3549678458
H     10.1470457809     3.8598845039    -1.5244380784
H     11.4384775270     5.0375317951    -1.8731071179
H     11.3670484881     4.2555317306    -0.2763972694
C     11.7569068592     2.7552514761    -3.3991510105
H     10.7224963665     2.3829137571    -3.4719636868
H     12.4140758198     2.0168495869    -3.8860908104
H     11.8155048121     3.7015550962    -3.9645487035
O     17.5695231687     4.7351659831    -1.1513797370
H     13.6215952332     0.6912060171    -2.1265253037
H      9.8173209527     0.0072686063     1.0092806636
H     -2.2474868781    -5.2289677282    -1.5735606378
C     -2.0906648038    -4.2179947732    -1.1843104369
H     -3.6049224291    -3.3293568971    -2.4325081731
H     -3.4358808884     0.4239199634    -3.6755842409
C     -2.8453499067    -3.1494767088    -1.6640971926
O     -0.4813654200    -5.1702934852     0.3015657292
C     -1.1242061489    -4.0245309218    -0.1947480960
C     -2.9496954160    -0.4529241622    -3.2140583891
H     -4.9204205704    -1.5376612636     0.3779529437
H     -3.1260152676    -1.3290490173    -3.8586336307
H     -7.3627209380    -1.9882993821     0.5251961503
C     -5.5484113772    -1.4197051011    -0.5116793737
H     -1.8642916101    -0.2645803394    -3.1936963754
C     -6.9151113942    -1.6768395955    -0.4238953954
C     -2.6477000677    -1.8494081844    -1.1580963007
C     -3.4620994536    -0.6832912014    -1.7682575870
C     -0.9305060928    -2.7466149135     0.3270894867
C     -4.9712809085    -1.0250413230    -1.7349004524
C     -1.6805835773    -1.6686253568    -0.1575168946
C     -7.7403450738    -1.5493455032    -1.5432488880
O     -9.0857224584    -1.9239925918    -1.3926908655
H     -0.1795934185    -2.5800362079     1.1026418312
C     -5.8087099414    -0.9093754421    -2.8550965768
C     -7.1796589852    -1.1766906425    -2.7636349165
C    -10.0620188294    -1.1110979156    -1.8848355788
C     -3.2594332944     0.6398947822    -0.9845174377
H     -1.5013202684    -0.6766644243     0.2668312063
H     -2.2112625329     0.9811830424    -1.0405363712
H     -5.3989393921    -0.6128453973    -3.8248290840
H     -3.8942820129     1.4270750599    -1.4218871681
O     -9.9238055119    -0.0571961003    -2.4567899370
H     -7.8125879581    -1.0756720223    -3.6482779923
H     -3.5364899999     0.5370498380     0.0769870443
H    -13.2388514286    -1.4718367805     0.0178246614
C    -13.4622496296    -1.1213085957    -0.9947964781
H    -15.5028475892    -0.6043200824    -0.5375413448
H    -17.4150732283    -1.4343966488    -1.9267047521
C    -14.7300858129    -0.6385237438    -1.3130291175
O    -11.2293735061    -1.7431198885    -1.5783968215
C    -12.4476274686    -1.1527935702    -1.9537016984
C    -17.3771529239    -0.9628531705    -2.9217934716
H    -15.1109363761     2.5472053137    -2.2066094212
H    -16.9948936302    -1.7115503979    -3.6341565582
H    -15.8160306122     4.3423967407    -0.6360176854
C    -16.0725394821     2.4672565676    -1.6883220876
H    -18.4065904910    -0.7040653400    -3.2248853816
C    -16.4601586708     3.4738627104    -0.8061640556
C    -15.0170929684    -0.1857846534    -2.6160257352
C    -16.4557134123     0.2849730572    -2.9380861204
C    -12.7217763125    -0.7212961679    -3.2504192900
C    -16.9007742064     1.3483083083    -1.9055626820
C    -13.9931375418    -0.2336077357    -3.5744451031
C    -17.6671405463     3.3881692022    -0.1091840047
O    -18.0269544923     4.4892121728     0.6859859524
H    -11.9365538533    -0.7374184366    -4.0097695977
C    -18.1171894624     1.2794094123    -1.2092316909
C    -18.5031475541     2.2941044493    -0.3256478731
C    -18.4940265247     4.2742410001     1.9472076509
C    -16.5569214866     0.9225280993    -4.3486166260
O    -18.7426009990     5.5188182116     2.4439911605
H    -14.1750646664     0.1083208214    -4.5973264773
H    -15.8732249767     1.7788228398    -4.4640481088
H    -18.7886870802     0.4275445723    -1.3495945942
H    -16.3292795244     0.1854272571    -5.1381901326
O    -18.6440343006     3.2154532310     2.5067419400
H    -19.4487916595     2.2126080821     0.2151758170
H    -17.5834065832     1.2870992652    -4.5146388843
H     10.0888634631    -5.1024408487     3.6460661889
C      9.3879846161    -5.4439329156     2.8779757412
H      8.4103631237    -6.8493349643     4.1808690773
H      6.1285586912    -7.5171777739     4.5513167957
C      8.4384178610    -6.4286269221     3.1716980527
C      9.4556060168    -4.8756291925     1.6084437103
C      6.4082752068    -8.3812449748     3.9272427511
H      5.2120550956    -5.6903127333     3.0619442158
H      7.3606932463    -8.7917033958     4.3051833346
H      2.9327277321    -4.9549823621     2.4518054674
C      4.5948787396    -6.3312100823     2.4230141313
H      5.6341004559    -9.1544628911     4.0575151360
C      3.3084298336    -5.9135418979     2.0859275734
C      7.5399481456    -6.8676749291     2.1872558593
C      6.5147812413    -8.0021026850     2.4266222050
C      8.5749216730    -5.3135465478     0.6151787544
C      5.1104112647    -7.5558785746     1.9542394327
C      7.6220111746    -6.2890243165     0.9051181751
C      2.5127278167    -6.7019460715     1.2492277341
O      1.1741061111    -6.3948917162     0.9525826766
H      8.6147177081    -4.8696264882    -0.3822544020
C      4.2962557755    -8.3443972994     1.1268928062
C      3.0081083569    -7.9174832637     0.7857601075
C      0.8700985162    -5.1553647258     0.4749889850
C      7.0134805530    -9.2562427994     1.6618267632
H      6.9270708320    -6.6037896958     0.1192376983
H      7.0454550163    -9.0886961313     0.5731302037
H      4.6546289688    -9.3018479078     0.7386548476
H      8.0337978579    -9.5077827035     1.9932106153
O      1.6328572964    -4.2488755167     0.2454489034
H      2.3735096389    -8.5323212051     0.1397054067
H      6.3696515822   -10.1301917061     1.8622444085
O     10.5024659898    -3.9697509352     1.3694733428
C    -20.3668983008     4.9539741857     4.2054548469
C    -19.2420423643     5.6488524296     3.7514161934
C    -18.6375690399     6.6112943445     4.5625469692
C    -19.1387558550     6.8716227626     5.8407144885
C    -20.2562376090     6.1683784456     6.3029795562
C    -20.8657087065     5.2095744366     5.4859554579
H    -17.7667962007     7.1505702623     4.1775773691
H    -21.7428828988     4.6573866780     5.8402383241
H    -20.8378536627     4.2014306368     3.5693517907
H    -18.6546450855     7.6268820725     6.4691308685
H    -20.6537553921     6.3661535219     7.3043042709
C     17.8959277088     5.6996154764    -0.2463287886
O     17.1494302988     6.3121275942     0.4774650310
O     19.2487285185     5.8303409924    -0.3481992467
C     19.9119708858     6.7693806679     0.4603107586
C     19.7393801255     6.8351697466     1.8460413097
C     20.5089731200     7.7296149859     2.5955282566
C     21.4602890324     8.5413925600     1.9676743249
C     21.6399449507     8.4637399879     0.5824834526
C     20.8662362803     7.5733340323    -0.1665415544
H     18.9922717210     6.2058474753     2.3342498464
H     20.3651008335     7.7828417192     3.6801159953
H     22.0622108464     9.2379872765     2.5611663733
H     22.3835388214     9.0912420060     0.0794746117
H     20.9907212489     7.4920026803    -1.2505911496
