158
pc config_3290 from config_3290.mcos (coord_rad bohr -> angstrom)
C     -0.2855647710    -7.0332700697    -2.0406605065
C      0.9987029731    -7.1465421057    -2.5697249411
C      1.5737227163    -8.4075400613    -2.8243074282
C      0.8202391967    -9.5525947114    -2.5239038001
C     -1.0194882416    -8.1819461609    -1.7301949281
C     -0.4665830039    -9.4332229977    -1.9864361901
C     -2.6544243314    -7.3700273662    -0.2013720114
O     -2.3525010264    -8.1364102012    -1.2872913098
O     -1.8930692014    -6.7214940351     0.4737471716
H     -0.7081095516    -6.0454212664    -1.8411048113
H      1.2258107588   -10.5519964933    -2.7049851580
C      5.7886794880    -6.0495699597    -1.1665520100
C      4.9918510268    -7.0183048646    -0.5535345100
C      4.0821304325    -7.7681892450    -1.2966523916
C      3.9598391612    -7.5725327918    -2.6864830371
C      4.7753993503    -6.6052881616    -3.2938077804
C      5.6883213678    -5.8557823205    -2.5430039384
H      5.0843192876    -7.1681065585     0.5268299950
H      4.7109142516    -6.4227627210    -4.3702387314
H      6.3046193784    -5.0988143185    -3.0341925030
H      3.4514634620    -8.5056686030    -0.7887783655
C      2.9753081388    -8.4667794919    -3.4779253058
C      2.8281931791    -8.0059882913    -4.9520360868
H      2.4879162339    -6.9605409189    -5.0247713393
H      2.0834957276    -8.6377982275    -5.4623770091
H      3.7827082007    -8.1015638158    -5.4983877436
C      3.5494273230    -9.9074477341    -3.4936564950
H      4.5654656979    -9.8939274615    -3.9198218446
H      2.9322379092   -10.5777609591    -4.1167322056
H      3.6153646472   -10.3362053522    -2.4807008158
O      6.7464580274    -5.4007691238    -0.3695174011
H      1.5676246015    -6.2356688784    -2.7855368714
H     -1.0532668072   -10.3266624512    -1.7502920695
H    -10.5316483628     4.1528188845     2.0719534906
C     -9.9336778008     4.2083769276     1.1569341898
H    -10.0096833910     6.3565573389     1.0597455283
H     -8.3226278167     8.0570795691     0.5251940677
C     -9.6349579608     5.4480288073     0.5797900637
O     -9.8753726897     1.8090996259     1.1545671819
C     -9.4677570071     3.0285623280     0.5845417621
C     -8.8824881069     8.0858441320    -0.4236309055
H     -7.3523763269     7.4820431818    -3.7916692567
H     -9.9596567372     8.1496871602    -0.1919356938
H     -4.9255062678     7.6561598760    -4.2747950888
C     -6.6344145966     7.2822258529    -2.9914347961
H     -8.5991916204     9.0090631121    -0.9543540957
C     -5.2669356714     7.3830544649    -3.2713018863
C     -8.8680153249     5.5221728095    -0.5932076659
C     -8.5690987805     6.8570599335    -1.3175967599
C     -8.7143220974     3.0884218098    -0.5899861961
C     -7.0728558407     6.9279357808    -1.7065239529
C     -8.4115656504     4.3195116887    -1.1688355903
C     -4.3173081522     7.1251736217    -2.2873407059
O     -2.9651970274     7.3337573269    -2.6106029644
H     -8.3427242236     2.1651089642    -1.0428934254
C     -6.1018509755     6.6828020241    -0.7149058314
C     -4.7413304511     6.7885178760    -0.9988039533
C     -2.0812310843     6.3220398908    -2.3784422509
C     -9.4951922002     6.9323416403    -2.5599636432
H     -7.8036917746     4.3466234196    -2.0794582097
H     -9.2797154160     6.1279577552    -3.2818909111
H     -6.4150888782     6.3957230032     0.2947240831
H    -10.5452711482     6.8269562820    -2.2432157396
O     -2.3183449201     5.2327512796    -1.9172640081
H     -4.0032355920     6.5811684464    -0.2197432102
H     -9.3956821684     7.9026833402    -3.0768465422
H      0.7604638870     6.3795432402    -4.7470525474
C      1.0661666761     5.8697541822    -3.8279334101
H      2.8678719892     5.0706462364    -4.6924071505
H      5.7013083657     3.0883232150    -3.6578117236
C      2.2546990210     5.1318696244    -3.7889108818
O     -0.8764521992     6.8046642385    -2.7937575344
C      0.2519496752     5.9715704972    -2.7036565905
C      4.7929804623     3.6981033364    -3.7883915593
H      4.7618223224     6.1216040520    -1.9223888534
H      5.1098639598     4.7345176548    -3.9879846825
H      6.2423296483     6.8783420980    -0.0707924215
C      5.1396158357     5.3925298212    -1.1973906453
H      4.2572875975     3.3192383024    -4.6761241235
C      5.9660576958     5.8232416457    -0.1612754444
C      2.6497328352     4.4828094908    -2.6093373098
C      3.9129370474     3.5938529406    -2.5154713024
C      0.6427971121     5.3439939982    -1.5171662324
C      4.7761168647     4.0359097289    -1.3089053415
C      1.8240830888     4.6056982403    -1.4738554945
C      6.4479124846     4.9177687628     0.7863279054
O      7.1957167343     5.4473850605     1.8540770644
H      0.0138367895     5.4204788932    -0.6269464448
C      5.2597249273     3.1371371109    -0.3453591425
C      6.0837484164     3.5764466787     0.6975992317
C      8.3743582730     4.8624970122     2.1939796464
C      3.4469198859     2.1200557800    -2.3887108726
O      8.8411297957     5.5922204088     3.2456255338
H      2.1169370548     4.1250944391    -0.5341295234
H      2.7976442389     1.8653669941    -3.2416793739
H      4.9964164690     2.0768605079    -0.3907617311
H      4.3042155647     1.4253062623    -2.3982385430
O      8.8983307325     3.9036208450     1.6776442359
H      6.4488295522     2.8603694932     1.4372000548
H      2.8699707706     1.9472793549    -1.4662685773
H     -3.7862276217    -4.8697509544     0.5953807797
C     -4.4821367541    -5.4412554593     1.2140533171
H     -5.0890206885    -3.7201298095     2.3506904616
H     -5.3082508096    -5.3543876737     5.6053350888
C     -5.2109958420    -4.8000750229     2.2138273491
C     -4.6281994646    -6.8171463953     1.0137736934
C     -5.7861950195    -4.4235454439     5.2602861344
H     -6.5919758104    -2.0518147681     4.9612063093
H     -6.2556744886    -3.9395483679     6.1346133417
H     -7.7503416592    -0.0890534323     4.0165862258
C     -7.2856173963    -2.1982471452     4.1286007377
H     -4.9920495318    -3.7619705856     4.8791557729
C     -7.9444446377    -1.0817475221     3.6018297935
C     -6.1112704212    -5.5117066234     3.0314173015
C     -6.8378626880    -4.7554793530     4.1698132133
C     -5.5254687480    -7.5287993402     1.8051897731
C     -7.5063065402    -3.4801638112     3.6016930423
C     -6.2622281538    -6.8889860426     2.8084832526
C     -8.8262862634    -1.2250909961     2.5335763542
O     -9.5781611458    -0.1532986339     2.0212822188
H     -5.6468071118    -8.6021134460     1.6279090293
C     -8.4092128208    -3.6123283680     2.5282734443
C     -9.0633992272    -2.4966848826     2.0083501883
C     -8.9064575970     0.9373092461     1.5541466215
C     -7.9410040736    -5.6205038211     4.8327987277
H     -6.9557944203    -7.4806190572     3.4127579813
H     -7.5088368336    -6.5057673238     5.3305875420
H     -8.5928255153    -4.5973147523     2.0856232917
H     -8.4638142994    -5.0260333384     5.5992841908
O     -7.7119053888     1.0980606075     1.5053554075
H     -9.7644056511    -2.6010781036     1.1742922312
H     -8.6919568936    -5.9641340204     4.1034251667
O     -3.9998780722    -7.5086323534    -0.0358069595
C     11.2424466519     5.0646829444     3.0998896480
C     10.0673040792     5.2395519045     3.8356930200
C     10.0969964664     5.1811797364     5.2307729544
C     11.2985866644     4.9292835427     5.8982011711
C     12.4742963046     4.7409979046     5.1636082437
C     12.4440540408     4.8068788274     3.7661243481
H      9.1658404089     5.3366627160     5.7837870365
H     13.3607544616     4.6648819951     3.1837868415
H     11.2146061466     5.1128555608     2.0090845135
H     11.3115085590     4.8842249714     6.9925536999
H     13.4185972994     4.5419286716     5.6817329103
C      6.8199769543    -4.0399298516    -0.4059890710
O      6.1385910436    -3.2856287898    -1.0571045445
O      7.8197087606    -3.7198337837     0.4607571296
C      8.1302709808    -2.3635447969     0.6729972686
C      8.2539584053    -1.9434944866     1.9984229146
C      8.6464620459    -0.6336958282     2.2891486223
C      8.9221132357     0.2563576953     1.2450648138
C      8.8083984324    -0.1710768594    -0.0831686965
C      8.4225505519    -1.4832516057    -0.3724319333
H      8.0341131779    -2.6574551908     2.7981212940
H      8.7377826588    -0.3139391168     3.3328657697
H      9.2173040510     1.2885417100     1.4614685678
H      9.0268479033     0.5203720826    -0.9039931377
H      8.3276463634    -1.8166221004    -1.4084604944
