158
pc config_7330 from config_7330.mcos (coord_rad bohr -> angstrom)
C     -9.0692216752     1.9286637803    -0.4861490482
C    -10.2074322406     1.4710375168    -1.1605926452
C    -11.4050634017     1.2240690263    -0.4719535628
C    -11.4308302862     1.4474546503     0.9188305641
C     -9.1129534346     2.1596580015     0.8873169457
C    -10.2975904360     1.9101092832     1.5844750804
C     -7.2128796594     3.5658533327     1.2299369479
O     -7.9943905694     2.5317334283     1.6504017842
O     -7.3596117506     4.2447925872     0.2426654379
H     -8.1481220070     2.1175922351    -1.0421281605
H    -12.3443793923     1.2463226506     1.4888670695
C    -14.2647348962    -2.8427616870     0.7179176313
C    -15.1005904477    -1.7445838790     0.5366775343
C    -14.6225603760    -0.5674728385    -0.0501187974
C    -13.2849824340    -0.4720340898    -0.4632220299
C    -12.4459875679    -1.5863886184    -0.2630728469
C    -12.9259215229    -2.7553877451     0.3247148493
H    -16.1423706677    -1.8166147962     0.8646911584
H    -11.3923354162    -1.5329227489    -0.5578502848
H    -12.2583752830    -3.6086301604     0.4665989518
H    -15.3084474067     0.2746280884    -0.1781575482
C    -12.7075262841     0.7737590211    -1.1769691607
C    -12.4651117337     0.3979343058    -2.6620107807
H    -13.4061041564     0.0388074946    -3.1087307172
H    -11.7169207945    -0.4039523697    -2.7676112245
H    -12.1261456950     1.2714863932    -3.2454374987
C    -13.6962581993     1.9683963261    -1.1525475866
H    -14.6174610727     1.7368174310    -1.7149679761
H    -13.2249806840     2.8453474980    -1.6245846131
H    -13.9768749123     2.2508621447    -0.1250825887
O    -14.7912132756    -3.9490428139     1.4060846240
H    -10.1416957054     1.3029216702    -2.2391674914
H    -10.3160493023     2.0765907562     2.6660207031
H      3.0093493878     2.1990702630    -2.8269195430
C      3.3958022702     2.5203449827    -3.7968606883
H      3.6131867772     0.5084056176    -4.5248085690
H      5.4716485048     0.6102248315    -9.0205113344
C      3.7276674188     1.5713851632    -4.7625597316
O      3.3192516359     4.8931190516    -3.1216587867
C      3.5452480093     3.8826471784    -4.0710724507
C      5.2431791312     1.4308610049    -8.3215105638
H      6.8584793671     1.2067788170    -5.7287561471
H      6.1942707040     1.9185547187    -8.0535212735
H      8.4093197331    -0.4894051209    -4.8179959729
C      6.6103577931     0.1444690028    -5.8283394224
H      4.6135452870     2.1630911798    -8.8561844309
C      7.4908052174    -0.8075818999    -5.3171440478
C      4.2255226435     1.9588907888    -6.0225692824
C      4.5119541299     0.8628351349    -7.0767942571
C      4.0465190565     4.2778281447    -5.3087750732
C      5.4120505569    -0.2369638261    -6.4640707305
C      4.3844360300     3.3290764520    -6.2799737068
C      7.1813279316    -2.1679698709    -5.4082043310
O      8.0673143995    -3.1820834985    -5.0066947094
H      4.1781857766     5.3460222239    -5.5071342422
C      5.1208194328    -1.6060331940    -6.5624198958
C      6.0048886547    -2.5576878898    -6.0418341702
C      8.5822095655    -3.1461891662    -3.7454845557
C      3.1475124083     0.2988216512    -7.5520517469
H      4.7752989408     3.6751012245    -7.2410620696
H      2.5219333978     1.1219087210    -7.9330841017
H      4.2019227397    -1.9485377464    -7.0463836484
H      3.2779886747    -0.4312389790    -8.3697018697
O      8.3604442704    -2.3316367429    -2.8834276608
H      5.7766558677    -3.6255679757    -6.1173450388
H      2.5960557935    -0.1892916161    -6.7323838310
H     10.9162107510    -2.5158850534    -2.2097058914
C     10.8902389877    -3.5432527639    -1.8388080594
H     12.2421846446    -3.1321191286    -0.2171622278
H     14.2997315564    -4.5729668457     0.1471668053
C     11.6320077946    -3.8953628039    -0.7121755847
O      9.3912091838    -4.2399927826    -3.6670295681
C     10.0828805171    -4.4938458618    -2.4708197417
C     13.9798945751    -5.5676120809     0.4975856580
H     14.3933566397    -4.0810709540     2.5077037534
H     14.0753585697    -6.2684333470    -0.3473301285
H     13.9320658356    -2.5528468179     4.4067617407
C     13.3576099919    -3.9079376803     2.8128341555
H     14.6738731637    -5.8991373752     1.2893953671
C     13.1052317215    -3.0457239285     3.8856268669
C     11.6058100604    -5.2088529100    -0.2029669976
C     12.5124861830    -5.5598512524     1.0010536248
C     10.0547440674    -5.7968370622    -1.9814615610
C     12.2975661456    -4.5392078671     2.1441923122
C     10.8023471820    -6.1568360406    -0.8549097971
C     11.8026164423    -2.7883764456     4.3032201621
O     11.6354038194    -1.9989483530     5.4538129980
H      9.4274666268    -6.5360362845    -2.4896572076
C     10.9840275276    -4.2764428792     2.5811197522
C     10.7384035965    -3.4213709928     3.6542211807
C     10.7390828270    -0.9732218955     5.4245442427
C     12.2047823611    -6.9708939373     1.5677807146
O     10.7995065825    -0.4214795259     6.6695084870
H     10.7499144464    -7.1880079762    -0.4946490888
H     11.1519947914    -7.0687776878     1.8783781186
H     10.1367685809    -4.7471524013     2.0707986151
H     12.4249268523    -7.7578708800     0.8257040115
O     10.0526575535    -0.6232789615     4.4960671993
H      9.7111703791    -3.2229769632     3.9695895908
H     12.8349448477    -7.1577586042     2.4521663984
H     -6.5525324772     6.3161770422     1.6087417717
C     -5.5235790285     5.9981270271     1.7915686256
H     -4.7396900368     7.9843329483     1.5574494739
H     -2.3631906267     7.9959924939     4.1087259993
C     -4.4874405930     6.9387095606     1.7547535574
C     -5.2420362216     4.6537860223     2.0268256873
C     -1.5122571369     7.6934259376     3.4774739779
H     -2.1925447708     6.7964056031    -0.6048462575
H     -0.7261523546     8.4614849384     3.5808922875
H     -0.4225422481     6.1067764905    -2.1857045336
C     -1.1539862583     6.7501337211    -0.2598688696
H     -1.1231499849     6.7410219623     3.8720903084
C     -0.1593008513     6.3642307368    -1.1571203207
C     -3.1547597569     6.5549450592     1.9700892474
C     -1.9808595499     7.5628509663     2.0046370842
C     -3.9205115000     4.2615618975     2.2521027034
C     -0.8432397931     7.0744242470     1.0757966234
C     -2.8862813127     5.1946468931     2.2196053983
C      1.1697528891     6.2703741324    -0.7339337719
O      2.2378495479     5.9791514962    -1.5984479031
H     -3.7109524219     3.2047773787     2.4447238489
C      0.4967136409     6.9910174818     1.4837307376
C      1.4904064468     6.5950325642     0.5816954381
C      2.1515055534     4.8952627095    -2.4199660431
C     -2.4113165410     8.9735021575     1.5241005035
H     -1.8555477038     4.8600985538     2.3791923648
H     -2.8275781033     8.9520336705     0.5041619617
H      0.7835681270     7.2333898182     2.5109972752
H     -3.1654388391     9.4136062674     2.1994863724
O      1.2392783952     4.1096527228    -2.5067490316
H      2.5352331330     6.5295004663     0.9007351193
H     -1.5357990168     9.6425138119     1.5157694301
O     -6.2305300764     3.6657564944     2.1683074712
C      8.6122801502     0.7103186425     6.7252552429
C      9.9879938888     0.6849548586     6.9731700093
C     10.5958646528     1.7364662875     7.6623830331
C      9.8391234914     2.8305508898     8.0897787840
C      8.4646427033     2.8650290533     7.8314878141
C      7.8554509896     1.8071236730     7.1475064443
H     11.6716912495     1.6849064781     7.8553282441
H      6.7792926649     1.8260417817     6.9440677301
H      8.1387242872    -0.1119510727     6.1848718123
H     10.3275412975     3.6506917625     8.6269371039
H      7.8651552674     3.7200573793     8.1621877790
C    -14.6050491720    -5.1963399095     0.8909239963
O    -14.0342153997    -5.4929889828    -0.1300874333
O    -15.2174033408    -6.0339576827     1.7746591354
C    -15.2102766260    -7.4177463354     1.5287566142
C    -16.4199728288    -8.0924914328     1.7055310850
C    -16.4769779710    -9.4828274288     1.5780606976
C    -15.3130171138   -10.1992857596     1.2798468289
C    -14.0999653031    -9.5224899804     1.1104960027
C    -14.0429174694    -8.1321995803     1.2437494561
H    -17.3159958609    -7.5105754352     1.9417419368
H    -17.4320073666   -10.0010008397     1.7163566896
H    -15.3503236569   -11.2891708644     1.1771598595
H    -13.1840268696   -10.0772716747     0.8799916478
H    -13.0979377204    -7.6025889785     1.1055661241
