158
pc config_7480 from config_7480.mcos (coord_rad bohr -> angstrom)
C    -12.1484462500     2.2963180363     0.5138181392
C    -13.2765370962     2.2871302005     1.3420344131
C    -14.0179104467     1.1092508543     1.5198259159
C    -13.5971247789    -0.0506391064     0.8389042623
C    -11.7363657705     1.1411984702    -0.1444110793
C    -12.4748379084    -0.0355665541     0.0128120634
C     -9.6467297782     0.3445350799    -0.9703400616
O    -10.6588307354     1.2545381375    -1.0387808069
O     -9.5379076843    -0.5765721053    -0.1979756352
H    -11.5742962150     3.2170577089     0.3700773429
H    -14.1684002330    -0.9794525536     0.9434399015
C    -18.6997023995    -0.5629020208     0.3139319938
C    -18.3152175914    -1.1512829562     1.5174884822
C    -17.2002508205    -0.6674934145     2.2118427213
C    -16.4410928941     0.4005897372     1.7095353868
C    -16.8305338975     0.9741153887     0.4830188168
C    -17.9458249636     0.4939831497    -0.2005432753
H    -18.8935207969    -1.9811247985     1.9301683632
H    -16.2488566389     1.7965829164     0.0530304723
H    -18.2456835278     0.9362431508    -1.1558584177
H    -16.9266099444    -1.1454933091     3.1567687578
C    -15.2378124442     1.0125201685     2.4670651291
C    -15.6722668463     2.4029160581     2.9992660639
H    -16.5708268239     2.2920175804     3.6271420052
H    -15.9188082733     3.0991219223     2.1815294704
H    -14.8809458766     2.8586349768     3.6194876219
C    -14.8221291486     0.1531575465     3.6895696973
H    -15.6270824955     0.1149092656     4.4437921569
H    -13.9343704488     0.5982482827     4.1668585925
H    -14.5652008764    -0.8785212774     3.4005387036
O    -19.7470178474    -1.0506291823    -0.4852813933
H    -13.5700342690     3.2131985550     1.8443290004
H    -12.1643635369    -0.9475345730    -0.5028288397
H      4.3885933125     0.2723653150     1.9667443871
C      4.0752268361     1.3195680614     2.0216404317
H      6.0413339861     2.0494361733     2.5120398397
H      6.6680985007     5.2969648080     4.6767110329
C      4.9949147306     2.3191045777     2.3325594169
O      1.8609538076     0.5606428007     1.5469365762
C      2.7393359788     1.6353723013     1.7634125223
C      5.9847684918     4.5138233386     4.3047698279
H      5.6985955378     4.6783150051     0.0786305309
H      6.4526800431     3.5317547467     4.4795198893
H      7.6689936060     4.5892956281    -1.4369886573
C      6.7073227541     4.6310917276     0.5028109511
H      5.0626108265     4.5585643952     4.9062248003
C      7.8070669522     4.5771184740    -0.3511554323
C      4.5924790226     3.6674576290     2.4036059446
C      5.6381359198     4.7340507429     2.8089345682
C      2.3249959084     2.9633449140     1.8428504656
C      6.8851588651     4.6135240346     1.9003728502
C      3.2456085297     3.9714946225     2.1521605932
C      9.1044194772     4.4887435535     0.1580225290
O     10.1595441413     4.5357496319    -0.7683094652
H      1.2835383287     3.2226726339     1.6387655808
C      8.1941042143     4.5379868098     2.4005434023
C      9.2958947837     4.4858390222     1.5387145558
C     11.1863195784     3.6479460463    -0.6537591595
C      5.0842384905     6.1757303408     2.6649959802
H      2.8913015915     5.0051172900     2.1974685677
H      4.2375387870     6.3493650269     3.3516910998
H      8.3750484448     4.5222350861     3.4791152833
H      5.8753172730     6.9004857010     2.9160777989
O     11.3212215951     2.7797862713     0.1737454899
H     10.3048897934     4.4136671546     1.9510422242
H      4.7479865858     6.3877776558     1.6373941390
H     13.9218436920     3.4153131311     0.1862686292
C     14.1418976586     3.0416652040    -0.8167768371
H     16.0547199439     2.2418687784    -0.2440996767
H     18.1444778591     2.8017938535    -1.5282827321
C     15.3408604228     2.3754245461    -1.0641740179
O     12.0230998038     3.9456463849    -1.6872508629
C     13.2036631453     3.1991841973    -1.8412692637
C     18.1006310391     2.3201518247    -2.5183539854
H     19.2268259907     0.7815021692    -0.8508985711
H     17.8633503272     3.0992566465    -3.2605705212
H     19.5404077811    -1.0788051139     0.7609412267
C     18.4400209999     0.0290713483    -0.7458700077
H     19.1016656653     1.9208668326    -2.7572272001
C     18.6259632776    -1.0187774992     0.1626933726
C     15.6446910958     1.8716431991    -2.3445848877
C     17.0228258701     1.2057699461    -2.5742585560
C     13.4960805612     2.7140790431    -3.1126537662
C     17.2633601697     0.1126358239    -1.5056290321
C     14.7014020550     2.0503639556    -3.3678681277
C     17.6506304584    -1.9986743450     0.3281355824
O     17.8726260600    -2.9617872942     1.3267956632
H     12.7597869788     2.8517482561    -3.9108039319
C     16.2793881944    -0.8791289532    -1.3208194475
C     16.4681773691    -1.9195792352    -0.4127045938
C     17.6702472608    -4.2767198853     1.0335962944
C     17.1178765716     0.5324349520    -3.9680927246
O     17.9586561981    -4.9415880168     2.1878929689
H     14.8938825540     1.6755191567    -4.3770393962
H     16.3336590417    -0.2279775872    -4.1125568687
H     15.3413114480    -0.8284290411    -1.8838428980
H     17.0370710414     1.2768863089    -4.7791065090
O     17.3141359974    -4.7489716938    -0.0184610616
H     15.6940928938    -2.6800405843    -0.2858206746
H     18.0936588901     0.0306122073    -4.0683451703
H     -6.4540773288     1.7796908986    -2.2552709992
C     -6.4248736966     0.6894827951    -2.3491639020
H     -4.3142761208     0.6227643475    -2.7749725978
H     -4.4073249051    -1.9969264788    -5.2665680926
C     -5.2300412209     0.0362546382    -2.6443902375
C     -7.6043431447    -0.0315230249    -2.1507855844
C     -3.5602577563    -1.6838508911    -4.6352558994
H     -3.8805061743    -2.0516557465    -0.4247725211
H     -2.6574460677    -2.2037087167    -5.0003378777
H     -2.0725936627    -1.4011501831     1.1550265989
C     -2.9267472746    -1.6807066478    -0.8154896684
H     -3.4188089408    -0.6002231545    -4.7757933888
C     -1.9202194054    -1.3122082648     0.0748707342
C     -5.1924558731    -1.3670605968    -2.7642687613
C     -3.8566207570    -2.0434164968    -3.1557457413
C     -7.5846334831    -1.4193048131    -2.2804948296
C     -2.7313854373    -1.5668428752    -2.2061473138
C     -6.3861600214    -2.0800694293    -2.5747352432
C     -0.7024297312    -0.8126777132    -0.3926950625
O      0.2893444261    -0.5519534972     0.5672823200
H     -8.4987484996    -1.9965808249    -2.1246821725
C     -1.5002795043    -1.0729086873    -2.6644011835
C     -0.4911360189    -0.7069076519    -1.7659527319
C      0.9877823102     0.6159242573     0.5026935523
C     -3.9367479513    -3.5894758219    -3.0574888843
H     -6.3996241500    -3.1704825059    -2.6590843137
H     -4.2175688615    -3.9245758379    -2.0461171033
H     -1.3071789001    -0.9690113555    -3.7357881574
H     -4.6678225837    -3.9988217788    -3.7761659042
O      0.8607198069     1.5054670854    -0.3035303877
H      0.4555949391    -0.3136059328    -2.1433585852
H     -2.9524853646    -4.0243834690    -3.2945273316
O     -8.7804196619     0.7113790221    -1.9552305994
C     18.4289930875    -7.1785246454     1.2652678497
C     17.8484231816    -6.3421543723     2.2227459875
C     17.2153532425    -6.8891342872     3.3413038124
C     17.1433686705    -8.2753234896     3.5011042387
C     17.7129478939    -9.1152468491     2.5380071148
C     18.3523561789    -8.5656802242     1.4212842257
H     16.7809172190    -6.2120036323     4.0827678013
H     18.8036909052    -9.2159901168     0.6642508100
H     18.9215782466    -6.7473930273     0.3912422067
H     16.6431269591    -8.6941779955     4.3809717462
H     17.6578140959   -10.2027231710     2.6571327118
C    -20.9621349112    -1.2879416344     0.0829271837
O    -21.2813224407    -1.1237839284     1.2351466594
O    -21.7425543265    -1.7391312370    -0.9392903009
C    -23.0828881652    -2.0764385057    -0.6836761819
C    -23.4647222558    -2.9412943059     0.3461346617
C    -24.8070117590    -3.3089737508     0.4764762225
C    -25.7614989659    -2.8308791958    -0.4282914545
C    -25.3740856222    -1.9760878510    -1.4657236635
C    -24.0329245655    -1.6046680616    -1.5917745711
H    -22.7201109998    -3.3089379094     1.0553856309
H    -25.1026299198    -3.9811081862     1.2893132689
H    -26.8112430845    -3.1251784835    -0.3224418881
H    -26.1108344777    -1.5976797947    -2.1824568694
H    -23.7050203653    -0.9400908172    -2.3968103629
