158
pc config_350 from config_350.mcos (coord_rad bohr -> angstrom)
C    -10.5055048719     0.1014779589    -0.6307055860
C    -11.1637886391    -1.1108480200    -0.4347451227
C    -11.7148704684    -1.4331455008     0.8211382338
C    -11.5793485279    -0.5025288402     1.8628456573
C    -10.3691175246     1.0162118448     0.4160466132
C    -10.9199391987     0.7155216256     1.6602594547
C     -8.8219022367     2.7571916332     0.9406975596
O     -9.7744141946     2.2507942817     0.1082928331
O     -8.3951469694     2.2648064765     1.9567069027
H    -10.0764916372     0.3506965127    -1.6062254354
H    -11.9917386850    -0.7135912721     2.8534401159
C     -9.9775469931    -6.1122801916    -0.2786754994
C     -9.5059718080    -5.1565096617     0.6257196884
C    -10.3119061152    -4.0784182413     0.9883933391
C    -11.6170344840    -3.9406815312     0.4751672602
C    -12.0835024883    -4.9147306953    -0.4207215612
C    -11.2677747909    -5.9906720358    -0.7879982217
H     -8.4932764461    -5.2397385969     1.0272245503
H    -13.0897945049    -4.8475517588    -0.8440310657
H    -11.6324359695    -6.7501242103    -1.4866038896
H     -9.9167549597    -3.3285718968     1.6821344170
C    -12.4902132165    -2.7638279225     0.9732360119
C    -13.8098019264    -2.6379790817     0.1678280232
H    -13.6237077217    -2.5054010064    -0.9101397392
H    -14.3743564372    -1.7604028708     0.5217543146
H    -14.4492800121    -3.5272218154     0.3050149575
C    -12.8692293317    -3.0501885230     2.4500209238
H    -13.3737788804    -4.0274428968     2.5176542351
H    -13.5623028891    -2.2850484219     2.8409270356
H    -11.9827647558    -3.0837530293     3.1035308648
O     -9.2624345017    -7.2731997871    -0.6182839021
H    -11.2408562320    -1.8207315278    -1.2653814111
H    -10.8146358571     1.4204713375     2.4881246648
H      1.8088932056     3.7745996325    -2.4166963489
C      2.3680158755     4.4033001344    -3.1136564925
H      2.8364188873     2.7637488493    -4.4240597311
H      5.9918806118     5.2689250219    -6.6464147054
C      2.9404547405     3.8405483631    -4.2531297591
O      2.0272623717     6.3934568746    -1.6966614455
C      2.4981564097     5.7725406919    -2.8657786400
C      5.1417737277     4.9139906220    -7.2510477976
H      6.2326247732     3.8017994546    -4.6166643187
H      4.5852227425     5.7925271915    -7.6211269293
H      7.6782651833     1.8826683827    -4.0368663969
C      6.0734445631     2.8402971656    -5.1165486056
H      5.5505862107     4.3820198872    -8.1251725921
C      6.8947704210     1.7626323550    -4.7888195333
C      3.6634943458     4.6300107609    -5.1695964356
C      4.2177366050     3.9599150899    -6.4495103058
C      3.2201617153     6.5613143059    -3.7576330633
C      5.0467917161     2.7084875017    -6.0727447599
C      3.7988891510     6.0005962284    -4.9015877613
C      6.6944699508     0.5181835833    -5.3930457581
O      7.5378399872    -0.5861093705    -5.1854294041
H      3.3330612493     7.6289347870    -3.5451361192
C      4.8650009190     1.4575831463    -6.6817474867
C      5.6868479938     0.3767980138    -6.3436870118
C      7.8311186371    -0.9667946347    -3.9102051940
C      3.0108715511     3.6056856504    -7.3571894020
H      4.3589679057     6.6494888312    -5.5809236229
H      2.3401007071     2.8715712648    -6.8826574359
H      4.0795802121     1.3093174938    -7.4283085008
H      2.4227793666     4.5153980382    -7.5587874900
O      7.4382403499    -0.4666658225    -2.8846663768
H      5.5441472995    -0.5984776981    -6.8193462670
H      3.3449776324     3.1986412724    -8.3273161464
H     11.1412770916    -2.6522025596    -3.6904583088
C     10.5053312117    -2.9917357013    -2.8669996457
H     12.1210012986    -3.9428498097    -1.8118128808
H     12.6902723370    -5.6130423820    -0.4777086607
C     11.0502669415    -3.7200365554    -1.8039250392
O      8.6652351417    -2.0359100818    -4.0465166151
C      9.1483912624    -2.6799141389    -2.8953625550
C     12.3106794645    -5.1098737153     0.4284774799
H      9.4820750437    -6.2401021921     2.6305635859
H     12.6424253735    -5.6947678577     1.3014223602
H      8.9144470029    -5.1884694467     4.8045870427
C      9.7096962576    -5.1816920945     2.7858658868
H     12.7761752812    -4.1133128588     0.4950862991
C      9.3865855888    -4.5960558447     4.0147165159
C     10.2357570691    -4.1565644827    -0.7479939527
C     10.7615675143    -5.0262074390     0.4191269314
C      8.3238666496    -3.1196004907    -1.8557698592
C     10.3153816866    -4.4230887004     1.7726139105
C      8.8636183702    -3.8388181935    -0.7903910609
C      9.6522171520    -3.2501728515     4.2540903823
O      9.3892916229    -2.7688871758     5.5475653091
H      7.2593945426    -2.8738372622    -1.8642031372
C     10.5837175175    -3.0637256640     2.0288321179
C     10.2672046877    -2.4865201154     3.2578125825
C      8.7434185863    -1.5785607492     5.6964929884
C     10.2168966056    -6.4646740009     0.2168987499
O      8.6502924108    -1.3974178439     7.0443443054
H      8.2047171155    -4.1565121398     0.0248130645
H     10.5166798639    -6.8353303780    -0.7765477500
H     11.0459051257    -2.4433847774     1.2534671245
H     10.6258903841    -7.1578639325     0.9723280075
O      8.3422147125    -0.8457183981     4.8257618791
H     10.4733434781    -1.4279880236     3.4323175068
H      9.1168073594    -6.4995100369     0.2704653174
H     -8.7017407225     6.4633178645     0.8734055331
C     -7.7229967101     6.0728825265     1.1689797894
H     -6.9862103220     7.9881343033     1.8159993441
H     -3.9494023669     5.8404744377     4.3160169452
C     -6.7488518920     6.9269993220     1.6979832972
C     -7.4637861579     4.7151886129     1.0016546223
C     -4.2736962243     6.8877208501     4.2058698249
H     -1.8014106309     6.6986149121     3.6814211037
H     -5.2562204124     6.9873225430     4.6945646839
H      0.2947087648     6.5327681140     2.3640590887
C     -1.8397633249     6.8447883598     2.5981551209
H     -3.5608966220     7.5335326312     4.7474423674
C     -0.6533516546     6.7500609541     1.8623392435
C     -5.4898551204     6.4296712446     2.0670113159
C     -4.3914562548     7.3049616172     2.7166950203
C     -6.2091333365     4.2095592837     1.3529332690
C     -3.0559666351     7.1224614497     1.9559165929
C     -5.2363219739     5.0557210486     1.8822475699
C     -0.6564284409     6.9213966418     0.4803830784
O      0.5895557505     6.9103173944    -0.1679837314
H     -5.9938169362     3.1467079455     1.2192128568
C     -3.0448578494     7.3000773912     0.5581000029
C     -1.8591819453     7.2128377816    -0.1697422934
C      0.7346064700     6.1912813532    -1.3165462866
C     -4.7534147154     8.8128582816     2.6807185383
H     -4.2553143789     4.6426706053     2.1402446176
H     -5.6588218632     9.0212764062     3.2768961609
H     -3.9803911197     7.5078414346     0.0276642566
H     -3.9255207210     9.4003176454     3.1093206565
O     -0.1002545592     5.5222007824    -1.8751864971
H     -1.8739347392     7.3433949234    -1.2543058218
H     -4.9225034827     9.1716395211     1.6527224592
O     -8.4571618177     3.9426994639     0.3766779222
C      8.6650007987     0.4038843949     8.6023403067
C      8.0225836098    -0.2438884133     7.5444469633
C      6.7697138901     0.1962170816     7.1085110972
C      6.1734720085     1.3019745619     7.7219378381
C      6.8184597910     1.9555497487     8.7777034127
C      8.0671214572     1.5053136828     9.2199873959
H      6.2713695221    -0.3106555636     6.2796382832
H      8.5799592400     2.0070871214    10.0476904245
H      9.6388599832     0.0308068960     8.9331419426
H      5.1945124795     1.6458965388     7.3712069060
H      6.3459795789     2.8199137326     9.2567612607
C     -7.9661563206    -7.1598095377    -1.0215857952
O     -7.3194796477    -6.1479398226    -1.1417624111
O     -7.5603538819    -8.4390780934    -1.2598648290
C     -6.2454128417    -8.6761758183    -1.6953541853
C     -5.6568467499    -7.9906670688    -2.7616260021
C     -4.3754738614    -8.3488940056    -3.1909195218
C     -3.6911869226    -9.3986895925    -2.5683735991
C     -4.2878533746   -10.0911889506    -1.5091867791
C     -5.5660069806    -9.7284551144    -1.0769199349
H     -6.1898563282    -7.1670741878    -3.2411757213
H     -3.9169855194    -7.8034015200    -4.0227213881
H     -2.6883920808    -9.6771671914    -2.9099772581
H     -3.7630100989   -10.9167562899    -1.0163995074
H     -6.0548037512   -10.2575036166    -0.2533919034
