158
pc config_2230 from config_2230.mcos (coord_rad bohr -> angstrom)
C      9.8837807955     1.5859014681     2.1788350673
C     10.0135854171     2.9722322864     2.2444015646
C     11.0416939168     3.5718208938     2.9991176594
C     11.9382958802     2.7348556214     3.6805163307
C     10.7753248993     0.7635873107     2.8734852142
C     11.8023164851     1.3437936223     3.6134727963
C      9.5941507743    -1.3054207180     2.9886380469
O     10.7644591832    -0.6384063994     2.7826641083
O      8.5149903852    -0.8321011969     3.2502041011
H      9.0771998602     1.1406716548     1.5915798102
H     12.7560782866     3.1565424668     4.2719179092
C     11.1671554013     6.8342891344    -0.9324980217
C     10.2367659395     7.2984022524    -0.0047545543
C     10.1825772323     6.7403872704     1.2779634628
C     11.0686781901     5.7219027872     1.6613281415
C     12.0123376542     5.2711544565     0.7172804941
C     12.0605409047     5.8273857907    -0.5593357382
H      9.5293535640     8.0816607081    -0.2864272333
H     12.7103465199     4.4691850359     0.9809942527
H     12.7940113041     5.4769540308    -1.2921977932
H      9.4342316912     7.1190998114     1.9797430093
C     11.0939688000     5.1161218426     3.0853571795
C     12.3824809204     5.6155767786     3.7897573668
H     13.2941051018     5.2629125971     3.2811286042
H     12.4183646240     5.2820564529     4.8414451317
H     12.4004521684     6.7172932049     3.7855414134
C      9.8845430929     5.5823255977     3.9371265253
H      9.9102559192     6.6729699887     4.1055644469
H      9.9159189276     5.0886774040     4.9216882919
H      8.9236090237     5.3250243941     3.4636142102
O     11.3454087814     7.4013428805    -2.2053453959
H      9.3109443005     3.5992801249     1.6851480061
H     12.5067279451     0.6915841189     4.1389836237
H     -0.0550158336    -9.2819532440    -4.0355481447
C     -0.5032788019    -8.2857963044    -3.9655633955
H     -2.2935874888    -8.8537937232    -5.0160123450
H     -4.6370384441    -8.3833952482    -4.7475755957
C     -1.7660206388    -8.0371241296    -4.5152502938
O      1.5039060404    -7.5758396145    -2.8762082366
C      0.2007542941    -7.2793706652    -3.3108138724
C     -4.4622393825    -7.6607959709    -5.5609959511
H     -5.1336702527    -3.9720488434    -5.2489472087
H     -3.9081109686    -8.1707952958    -6.3680985976
H     -6.6134194788    -2.9541320358    -3.5620738957
C     -5.2670163406    -4.4807678343    -4.2899634045
H     -5.4440195514    -7.3638207071    -5.9635274022
C     -6.1164347388    -3.9012999880    -3.3402488367
C     -2.3417464200    -6.7607142626    -4.4239681363
C     -3.7036859299    -6.4019094496    -5.0653180763
C     -0.3547268077    -5.9991830200    -3.2271678173
C     -4.6018475144    -5.6881097375    -4.0266870432
C     -1.6149033164    -5.7478350406    -3.7670672852
C     -6.2995752883    -4.5120317414    -2.1007201501
O     -7.2061004815    -4.0437898633    -1.1351117942
H      0.1873500042    -5.2019696509    -2.7126280274
C     -4.8079111110    -6.3020211360    -2.7755106108
C     -5.6525763161    -5.7200556476    -1.8324025736
C     -7.1668996521    -2.7330577668    -0.7660973704
C     -3.4218487509    -5.5085283669    -6.3019419812
H     -2.0439380337    -4.7443417508    -3.6728041086
H     -2.7394870492    -6.0350709683    -6.9884847235
H     -4.2945689546    -7.2385368486    -2.5326448707
H     -4.3508615299    -5.2861599210    -6.8551301679
O     -6.4249211535    -1.8740186487    -1.1761054356
H     -5.8103438587    -6.1953227903    -0.8590832857
H     -2.9465334912    -4.5549224521    -6.0212622087
H     -8.2888766954    -2.2195233508     2.7276911319
C     -8.4541112558    -1.3009360330     2.1559112140
H     -8.8291083331    -0.1026083143     3.9037002920
H     -8.1053187437     4.2945101042     3.0672137427
C     -8.7612588232    -0.1037274604     2.8121992544
O     -8.1416111567    -2.6063838274     0.1778083358
C     -8.3546965856    -1.3494512550     0.7684015426
C     -8.0008548154     3.3283028863     2.5437561965
H     -9.6587071052     5.0211612745     1.6479782667
H     -7.8011279693     3.5280745566     1.4787897343
H    -11.7744523517     5.9683824804     0.7626078279
C    -10.5587885553     4.3997265306     1.6400010599
H     -7.1192139195     2.8141190535     2.9589003373
C    -11.7488657445     4.9424029703     1.1426386230
C     -8.9801337636     1.0724054016     2.0791728552
C     -9.2583395153     2.4425335586     2.7426446614
C     -8.5863660252    -0.1880649921     0.0253571302
C    -10.5222923504     3.0809792613     2.1177882838
C     -8.8895035619     1.0074451402     0.6743733295
C    -12.9183722836     4.1872764015     1.1141693395
O    -14.0455620763     4.7734035190     0.5137713589
H     -8.5164985770    -0.2149633676    -1.0647614793
C    -11.7099025812     2.3236968839     2.0730264155
C    -12.8923933426     2.8678728822     1.5745403513
C    -15.2464752611     4.7036197450     1.1530913605
C     -9.5010683253     2.3106399480     4.2687320778
O    -16.1204576669     5.3474626965     0.3288317408
H     -9.0757326699     1.9056463903     0.0756413421
H     -8.6017677022     1.9327791714     4.7855184363
H    -11.7069372855     1.2847660602     2.4198248509
H     -9.7406844188     3.3001469757     4.6900455608
O    -15.4841298537     4.1851164256     2.2167681151
H    -13.8035198579     2.2653821689     1.5522538350
H    -10.3430728128     1.6372690684     4.4957989328
H      9.5705444166    -4.5848368266     1.2046853562
C      8.8779296986    -4.6254798586     2.0511496049
H      7.9586106129    -6.4676309358     1.4183380208
H      4.4892711283    -5.8666632652     4.3880566986
C      7.9763051688    -5.6799911201     2.1794318626
C      8.9078031747    -3.5939935815     2.9927544327
C      5.1040811934    -6.7686611982     4.5370079749
H      4.6979128503    -5.1005422970     2.0244861964
H      5.5956517857    -6.6974217459     5.5227761659
H      3.3348540845    -5.3730309149    -0.0188376856
C      4.6490588427    -6.0814669287     1.5393896135
H      4.4257323956    -7.6365926846     4.5609141010
C      3.8888103999    -6.2260909407     0.3803112411
C      7.0843894484    -5.7331431427     3.2686584047
C      6.1446489981    -6.9558643492     3.4022078338
C      8.0400028503    -3.6406007753     4.0822664377
C      5.3685075993    -7.1659637653     2.0800050613
C      7.1299130357    -4.6962312147     4.2131831142
C      3.8201225711    -7.4658879867    -0.2623116889
O      3.1558438696    -7.6583776406    -1.4854357067
H      8.0495452347    -2.8373537307     4.8223862059
C      5.3038960640    -8.4006812384     1.4167031043
C      4.5369280195    -8.5412876026     0.2545569133
C      1.8580459565    -7.2586250305    -1.5991175572
C      7.0168321223    -8.1857052498     3.7658444892
H      6.4546358108    -4.6985783200     5.0734134561
H      6.3931969421    -9.0776494806     3.9509105917
H      5.8520171605    -9.2679903477     1.7953825977
H      7.7424072092    -8.4262632120     2.9722164587
O      1.1687634791    -6.7475418280    -0.7507240809
H      4.4913062966    -9.5030165205    -0.2661223524
H      7.5842548077    -7.9747420513     4.6864964376
O      9.9093833296    -2.6219086424     2.8356402317
C    -18.4159320111     5.1853443608    -0.2882712442
C    -17.4705342709     5.4541358301     0.7042578939
C    -17.8807750181     5.9115823653     1.9595578825
C    -19.2436318039     6.0763054372     2.2239180600
C    -20.1923045783     5.8012139624     1.2328171874
C    -19.7779463902     5.3552827939    -0.0269009958
H    -17.1390008646     6.1192989877     2.7335416630
H    -20.5113542635     5.1401472499    -0.8115550481
H    -18.0674029180     4.8416767123    -1.2667553706
H    -19.5592428632     6.4290233305     3.2116830832
H    -21.2588502419     5.9343960541     1.4439426131
C     10.2598700417     7.6061354892    -3.0022864199
O      9.1061669169     7.3528042294    -2.7539467503
O     10.7618915070     8.1605731813    -4.1415975820
C      9.8866179554     8.4980471407    -5.1880898692
C      8.9347491978     7.6140497908    -5.7036064249
C      8.1644940310     7.9936165421    -6.8068186101
C      8.3559254457     9.2448371249    -7.4032552137
C      9.3180995808    10.1228521289    -6.8925786983
C     10.0832708651     9.7449101209    -5.7862811857
H      8.7827715185     6.6406979847    -5.2324931986
H      7.4158718918     7.2987949565    -7.2023663015
H      7.7519510090     9.5365311251    -8.2692597282
H      9.4791347998    11.1033893371    -7.3535191108
H     10.8446265799    10.4124257946    -5.3718206547
