158
pc config_2880 from config_2880.mcos (coord_rad bohr -> angstrom)
C     12.5520307173     1.7129156731     1.3595845805
C     12.5793356205     3.0983012260     1.2066796304
C     13.5152153617     3.7182333967     0.3548835124
C     14.4163393721     2.9018149566    -0.3453497928
C     13.4459679558     0.9100776339     0.6453017663
C     14.3798857016     1.5112151700    -0.1946062577
C     12.4115894049    -1.2384217461     0.7492016571
O     13.5422304688    -0.4809479561     0.8172760287
O     11.2843425372    -0.8601558192     0.5421217498
H     11.8115586230     1.2509567025     2.0168640080
H     15.1595741762     3.3399564847    -1.0175960434
C      9.5829807419     6.8238747721    -0.6917454162
C     10.2639150019     7.3276744903     0.4151114453
C     11.5279988034     6.8281694896     0.7493958282
C     12.1266243139     5.8071309222    -0.0046932559
C     11.4191463926     5.2946080965    -1.1100447277
C     10.1640943794     5.8002050317    -1.4429917729
H      9.8196933538     8.1258540698     1.0141882666
H     11.8480614826     4.4832254753    -1.7077537555
H      9.6113710757     5.3978245058    -2.2977674131
H     12.0404300923     7.2477194861     1.6197500569
C     13.5465016863     5.2640074447     0.2849436286
C     14.4860908113     5.7758258156    -0.8381191124
H     14.1983018993     5.3834862129    -1.8268300553
H     15.5350507896     5.4937071435    -0.6421153678
H     14.4367487919     6.8754768487    -0.8862154859
C     14.1041676223     5.7864161223     1.6350792088
H     14.2291730793     6.8829850468     1.6188709526
H     15.0929458389     5.3377981804     1.8228200171
H     13.4494584121     5.5222856886     2.4811045946
O      8.2758384179     7.2065253983    -1.0355888338
H     11.8574131414     3.7089383242     1.7595477758
H     15.0833475104     0.8754737184    -0.7411948717
H      0.6094586574    -7.6267648317     1.3675650489
C     -0.0493117755    -7.1755124745     0.6221968867
H     -1.6741983519    -8.5045702468     1.0776083173
H     -4.0374418918    -8.3102534638     1.2965462027
C     -1.3462361208    -7.6727816230     0.4479709516
O      1.6618959481    -5.5092888638     0.0065206523
C      0.4089140765    -6.1202921133    -0.1640485743
C     -4.0622599499    -8.7191817868     0.2736286957
H     -5.6160701324    -6.9276055211    -2.6531938427
H     -3.4128538233    -9.6110166321     0.2381755317
H     -7.2886229935    -5.1294936422    -2.4518705877
C     -5.6081853024    -6.2990983990    -1.7583166660
H     -5.0943315290    -9.0453119578     0.0676306988
C     -6.5578595419    -5.2760621421    -1.6532373220
C     -2.2120987613    -7.1158614179    -0.5058546651
C     -3.6313211730    -7.6678231078    -0.7823074596
C     -0.4471002845    -5.5518274790    -1.1104330870
C     -4.6608858268    -6.5129668315    -0.7450241003
C     -1.7413642482    -6.0385790521    -1.2823571715
C     -6.5848103864    -4.4568504473    -0.5264222402
O     -7.4470345973    -3.3571893324    -0.3850816742
H     -0.0842328952    -4.7106408509    -1.7092252226
C     -4.6897280905    -5.6671884332     0.3813890492
C     -5.6415980699    -4.6547802354     0.4847681356
C     -8.7785838830    -3.5201998521    -0.6236473379
C     -3.6020088483    -8.3766879482    -2.1617377489
H     -2.3983793768    -5.5687609068    -2.0223409646
H     -3.3747145795    -7.6755451959    -2.9808415573
H     -3.9526777928    -5.7957189133     1.1815252727
H     -2.8210583150    -9.1539228738    -2.1588312556
O     -9.3478673638    -4.5311896949    -0.9570618947
H     -5.6591022882    -3.9936698146     1.3567979391
H     -4.5661757772    -8.8677147966    -2.3798482614
H    -11.3514430164    -3.8379126970     0.5705320283
C    -11.6656881449    -2.9500253069     0.0171830426
H    -13.7528946637    -3.3343685572     0.3480307832
H    -16.9357986044    -1.7957672801    -0.3703665978
C    -13.0285366380    -2.6606859127    -0.1181260959
O     -9.3266810904    -2.2924879333    -0.4036387500
C    -10.7109980844    -2.1196682352    -0.5665327817
C    -15.8882950916    -2.0972949499    -0.2091841254
H    -14.2864135169     0.0557266548     1.2667024864
H    -15.6749761484    -2.0079707369     0.8681829329
H    -14.7916211659     2.3597927597     2.0071888429
C    -14.8340033269     0.7268425174     0.5963039498
H    -15.7950410972    -3.1587962731    -0.4969818710
C    -15.1199037306     2.0234573243     1.0207557517
C    -13.4602127979    -1.5295163038    -0.8280193549
C    -14.9539557098    -1.1993579985    -1.0619311530
C    -11.1284437890    -0.9859160267    -1.2675638396
C    -15.2348227395     0.2729022266    -0.6761623388
C    -12.4836949179    -0.6899023816    -1.3992278581
C    -15.7943569561     2.9068369137     0.1732499664
O    -16.1976446909     4.1942361701     0.5666441352
H    -10.3700788349    -0.3289492624    -1.7046057639
C    -15.9241919486     1.1651570749    -1.5113478430
C    -16.2022371243     2.4681930977    -1.0836224291
C    -15.2761896943     5.0368266807     1.1118217768
C    -15.2709699075    -1.4795722074    -2.5543064805
O    -15.9669129364     6.1776154670     1.3933038322
H    -12.7864513158     0.2118831970    -1.9423386088
H    -15.0067404732    -2.5213539748    -2.7969659582
H    -16.2539675047     0.8555296472    -2.5071655634
H    -16.3457953207    -1.3461917681    -2.7673483523
O    -14.1045650898     4.8196606849     1.3031216985
H    -16.7397666085     3.1633402867    -1.7360073535
H    -14.6975860277    -0.8222188438    -3.2277042504
H     12.6850126266    -4.3373075361     2.7843692068
C     11.9637942422    -4.4961138015     1.9766517083
H     11.2087539800    -6.3311407100     2.8083270305
H      9.0452821536    -7.3270502990     3.0455167169
C     11.1275881843    -5.6179651538     1.9830608390
C     11.8901033877    -3.5587899687     0.9495623937
C      9.3422303728    -7.9165812617     2.1631685383
H      7.4307203284    -7.9273150880    -1.0830073314
H     10.3519823306    -8.3259471310     2.3400536063
H      5.0675726600    -7.2664547305    -1.3028951982
C      7.0207961865    -7.1973195153    -0.3795275970
H      8.6453204940    -8.7656041139     2.0766508585
C      5.6788852837    -6.8223338438    -0.5140701737
C     10.2024858453    -5.8230805204     0.9481806555
C      9.2965486278    -7.0747204315     0.8610521905
C     10.9828057846    -3.7587149326    -0.0948230166
C      7.8276515784    -6.6468601397     0.6282972625
C     10.1419268995    -4.8706169192    -0.0886098788
C      5.1169474065    -5.8995044359     0.3658651698
O      3.8064551774    -5.4085511353     0.2462177053
H     10.9130461657    -3.0263079870    -0.9025715827
C      7.2512047668    -5.7020501633     1.5000251721
C      5.9130348717    -5.3372426899     1.3665342576
C      2.7775956083    -6.2872416234     0.0874707700
C      9.8318086563    -7.9661917580    -0.2901983946
H      9.4235955678    -4.9988028358    -0.9054756896
H     10.8916918002    -8.2057520406    -0.1074037547
H      7.8588484076    -5.2378297023     2.2843291552
H      9.2764708632    -8.9182000866    -0.3501938514
O      2.8403366404    -7.4915409152     0.0309258313
H      5.4678944023    -4.5975040582     2.0391122641
H      9.7652218913    -7.4614739186    -1.2674300887
O     12.8318655128    -2.5163646737     0.9660018232
C    -15.9269269038     7.8972169430     3.0429927207
C    -15.2910026232     7.2658165955     1.9716042018
C    -14.1000613458     7.7850931490     1.4567551989
C    -13.5367335402     8.9268823904     2.0340386399
C    -14.1693651574     9.5570665638     3.1113640072
C    -15.3678354514     9.0419046116     3.6170097911
H    -13.6048859102     7.2873521081     0.6203087298
H    -15.8735387433     9.5288435443     4.4578434461
H    -16.8653417621     7.4782272544     3.4182722574
H    -12.5998555130     9.3252967246     1.6300841441
H    -13.7255608725    10.4529870602     3.5587938493
C      7.9728758046     8.5311353542    -1.1286458784
O      8.7103029122     9.4700315675    -0.9516004859
O      6.6562045454     8.5635301904    -1.4792215215
C      6.0238518188     9.8050561684    -1.6633376667
C      5.2221045467     9.9385015866    -2.7987879449
C      4.4808194240    11.1048307590    -3.0053541780
C      4.5387873362    12.1381487037    -2.0641168645
C      5.3367388080    11.9999019608    -0.9228881693
C      6.0735401396    10.8304664115    -0.7144246112
H      5.1902892173     9.1150162961    -3.5185916677
H      3.8573000696    11.1991431579    -3.9009169896
H      3.9613869005    13.0558148382    -2.2199912911
H      5.3843086695    12.8035337513    -0.1800645253
H      6.7013263116    10.7240146554     0.1728099923
