158
pc config_440 from config_440.mcos (coord_rad bohr -> angstrom)
C      6.5214380654    -1.6317105209    -1.7322982624
C      7.2861265090    -0.5444024511    -1.3118948295
C      8.6818749241    -0.5186670540    -1.5035044121
C      9.2864301488    -1.6233668459    -2.1225502377
C      7.1378541592    -2.7323647659    -2.3345570071
C      8.5158968975    -2.7158887870    -2.5351191870
C      5.4850155952    -4.4389236263    -2.1002884113
O      6.4291479176    -3.8226058230    -2.8659775899
O      5.1602062649    -4.1626718736    -0.9712170560
H      5.4420966200    -1.6369775511    -1.5637174206
H     10.3668429366    -1.6469449007    -2.2909462981
C      8.6404012082     1.7225096947     3.0942148638
C      9.0175310735     0.4304209686     2.7169226955
C      9.2451799056     0.1319560850     1.3742348731
C      9.1252798706     1.1213780260     0.3781968520
C      8.7596549473     2.4176326388     0.7719858638
C      8.5240019046     2.7104639305     2.1196338217
H      9.1047378976    -0.3539638426     3.4722042792
H      8.6537625029     3.2168593629     0.0329264492
H      8.2387947284     3.7216690757     2.4259649621
H      9.5185014980    -0.8915824321     1.0962052676
C      9.4660919687     0.7479424829    -1.0844552808
C      9.0936366790     1.8824469562    -2.0748226692
H      8.0244559179     2.1431578239    -2.0184307154
H      9.3061686163     1.5554285859    -3.1054267994
H      9.6860873475     2.7935466485    -1.8815758754
C     11.0004482458     0.5361935566    -1.1718207627
H     11.5177910120     1.4425666061    -0.8182142419
H     11.3207583247     0.3498076350    -2.2115992155
H     11.3357035340    -0.3072946268    -0.5470190138
O      8.4847205897     2.1256896543     4.4309551584
H      6.7872789194     0.2985284242    -0.8217238047
H      8.9883133898    -3.5773621060    -3.0172872700
H     -7.4186543273    -3.5653620170    -2.0455001026
C     -7.7451447830    -3.9279058561    -1.0658451897
H     -9.1975044346    -2.3615428792    -0.7916128261
H     -9.5829323992    -3.3784655687     3.6767641130
C     -8.7449430500    -3.2612750740    -0.3608732125
O     -6.1929802226    -5.7142221394    -1.3503634783
C     -7.1302199367    -5.0631927257    -0.5318982718
C    -10.5033738941    -3.4855626082     3.0804411233
H     -7.9966700596    -1.7995121824     2.4535250702
H    -10.8115409673    -4.5453299056     3.1011085346
H     -7.4616745285     0.6046727041     2.6857032817
C     -8.7490931432    -1.0525181793     2.1787868173
H    -11.2935341379    -2.8959917699     3.5726168269
C     -8.4437447823     0.3005801582     2.3140993868
C     -9.1615022326    -3.7244217469     0.9028685201
C    -10.3120106508    -2.9831174311     1.6252407576
C     -7.5454475590    -5.5428226862     0.7091715260
C    -10.0036264190    -1.4676731611     1.6888213253
C     -8.5457322081    -4.8727583479     1.4236974516
C     -9.3777048977     1.2725713944     1.9466403815
O     -9.1610591474     2.6476563092     2.1439364020
H     -7.0697669289    -6.4261995162     1.1403198792
C    -10.9383176785    -0.4818584601     1.3374338962
C    -10.6239909354     0.8754882159     1.4708397555
C     -8.0572480659     3.2159426178     1.5815961464
C    -11.6240596226    -3.2768064308     0.8517319517
H     -8.8397237074    -5.2666573119     2.4005816913
H    -11.5949243966    -2.8770907462    -0.1748206334
H    -11.9241377513    -0.7593511023     0.9534027796
H    -11.7752850571    -4.3661725369     0.7844094239
O     -7.2219613734     2.6766624125     0.8979690726
H    -11.3537728219     1.6432720501     1.1955963508
H    -12.4994859377    -2.8473548894     1.3690370436
H     -6.6876853697     6.0478146229     3.5032866719
C     -6.4461072414     6.1836019086     2.4445099671
H     -5.0039670569     7.7364398024     2.8180334623
H     -4.0463184906     9.5720957381     2.0420414226
C     -5.4972954333     7.1338401185     2.0500396758
O     -8.1012096287     4.5252161054     1.9583111826
C     -7.0912676528     5.3891144532     1.5010161379
C     -3.3871940207     9.0234391939     1.3472693099
H     -3.4445988330     9.1827643974    -2.4175692610
H     -2.6590238259     9.7415369513     0.9372382102
H     -1.7468331392     8.1618685076    -3.8819227770
C     -2.9083650364     8.2975755922    -2.0640547955
H     -2.8270534632     8.2678591051     1.9214723387
C     -1.9498531148     7.7191071308    -2.9040767583
C     -5.1853224728     7.3089821706     0.6932131632
C     -4.1967748565     8.3871314640     0.1873017545
C     -6.8002093145     5.5638043709     0.1455020517
C     -3.1879211272     7.7540554929    -0.8008104031
C     -5.8520287065     6.5045158848    -0.2525518318
C     -1.2413559666     6.5939601746    -2.4862075342
O     -0.3385201999     5.9006369594    -3.3095659131
H     -7.2992730797     4.9411660844    -0.6014892199
C     -2.4753247939     6.6073791535    -0.3976142222
C     -1.5172583554     6.0390988980    -1.2348999829
C      0.6393399470     6.5933569240    -3.9562779410
C     -5.0293243007     9.5155071688    -0.4765471631
O      1.3239631332     5.6505306837    -4.6635162333
H     -5.6232944486     6.6130404551    -1.3182078256
H     -5.7648844218     9.9036182358     0.2462695098
H     -2.6825328438     6.1452928035     0.5735390004
H     -4.3864148834    10.3569458333    -0.7881306433
O      0.8594203762     7.7790302046    -3.9053217261
H     -0.9693085204     5.1436244311    -0.9252023161
H     -5.5831768680     9.1541292562    -1.3579687546
H      2.8808985003    -6.0735872357    -4.2187984114
C      2.9193084547    -6.5662655706    -3.2422420316
H      1.0854159915    -7.6560922418    -3.5398062648
H      0.8974040419    -8.7370627361     0.9374547303
C      1.9199546216    -7.4581050634    -2.8583949231
C      3.9832128745    -6.2748254816    -2.3850022747
C      0.9636939641    -9.5825081085     0.2340950963
H     -1.3971142072   -10.0634743614    -2.6541802494
H      1.9090717687   -10.1205634868     0.4221376818
H     -3.6279986019    -8.9895230804    -2.8138619657
C     -1.5631066461    -9.1031746588    -2.1575060798
H      0.1335709152   -10.2713822935     0.4585904095
C     -2.8248938200    -8.5058048303    -2.2492331801
C      1.9680961472    -8.0917648711    -1.6009284154
C      0.8655421648    -9.1169836875    -1.2421343346
C      4.0507137478    -6.9052868395    -1.1440533853
C     -0.5300949156    -8.4785906735    -1.4420174330
C      3.0467807716    -7.7988720316    -0.7525017796
C     -3.0818130122    -7.2834569640    -1.6328264682
O     -4.3467538358    -6.7147329099    -1.8553753897
H      4.8739897112    -6.6814177351    -0.4620762444
C     -0.7991718933    -7.2373188144    -0.8318731977
C     -2.0569160563    -6.6437940761    -0.9294654567
C     -5.0248992099    -6.1621648553    -0.8110111400
C      1.0676539200   -10.3648951757    -2.1408698370
H      3.1226188827    -8.2680537760     0.2324019421
H      0.3606403250   -11.1693348371    -1.8735176006
H     -0.0069293968    -6.7162329982    -0.2836537067
H      0.9388670211   -10.1288399827    -3.2094683431
O     -4.6687445576    -6.0875856999     0.3401324624
H     -2.2449301850    -5.6828245057    -0.4456176041
H      2.0887586504   -10.7556265277    -2.0035968363
O      4.9899245183    -5.4342172267    -2.8880188039
C      2.3666495401     7.0942587909    -6.3668917158
C      2.4197774356     6.0373193112    -5.4531146060
C      3.5558034045     5.2279515436    -5.3829527107
C      4.6544983301     5.4810514148    -6.2081640207
C      4.6096616188     6.5464252899    -7.1137704156
C      3.4678116689     7.3517517163    -7.1886853979
H      3.5651338852     4.3980241345    -4.6699236410
H      3.4240540234     8.1853953369    -7.8979277414
H      1.4780064825     7.7264411233    -6.4207503591
H      5.5402997549     4.8401110929    -6.1428081523
H      5.4674743749     6.7515980948    -7.7632763074
C      7.7217489575     1.3713023258     5.2705011445
O      7.1280830710     0.3534757732     5.0098118998
O      7.7765180808     2.0182277789     6.4690392517
C      7.0824476232     1.4910216528     7.5713619368
C      5.7422405028     1.0981772087     7.5166720762
C      5.0997043761     0.6685411711     8.6816364684
C      5.7879546895     0.6471608379     9.8996930415
C      7.1259111891     1.0526898689     9.9536976878
C      7.7690650782     1.4760383497     8.7878560834
H      5.2089647386     1.1085718344     6.5639033666
H      4.0512907171     0.3556345826     8.6307743801
H      5.2792198536     0.3121154850    10.8100680281
H      7.6738559506     1.0433758452    10.9021397598
H      8.8134244227     1.8016502697     8.8056190519
