158
pc config_2000 from config_2000.mcos (coord_rad bohr -> angstrom)
C    -11.7386122250     1.6124190768    -4.3081318645
C    -12.4499551652     2.7220900969    -3.8381261061
C    -12.2854334292     3.1662750158    -2.5174040786
C    -11.3825109876     2.4706903668    -1.6885423973
C    -10.8577153675     0.9267078256    -3.4758405177
C    -10.6744341658     1.3674684373    -2.1621609358
C    -10.0284751705    -1.3078258596    -3.3937814636
O    -10.1131434401    -0.1168403411    -4.0505789977
O    -10.5358592315    -1.6027172265    -2.3389777723
H    -11.8616347556     1.2713813151    -5.3407469118
H    -11.2174701764     2.8067061662    -0.6592134008
C    -10.3570474757     7.2488672439    -0.1257202386
C    -11.4304789692     6.7668448898     0.6206284592
C    -12.2995392051     5.8164282379     0.0718671969
C    -12.1214776503     5.3450788770    -1.2379081442
C    -11.0395450506     5.8507171834    -1.9854092315
C    -10.1752671868     6.7942925572    -1.4339431753
H    -11.5799862050     7.1110338148     1.6465452508
H    -10.8656044068     5.4946919126    -3.0066358827
H     -9.3349948570     7.1867370152    -2.0151431874
H    -13.1263305030     5.4497164397     0.6865461181
C    -13.0885848031     4.3436727333    -1.9142003834
C    -14.1101591327     3.7520004075    -0.9082295758
H    -13.6128004942     3.2434446730    -0.0668997439
H    -14.7436826579     3.0103998572    -1.4207891950
H    -14.7712150912     4.5366079367    -0.5008346154
C    -13.8897882643     5.1149023349    -2.9954181111
H    -14.4061240405     5.9701317989    -2.5305546821
H    -14.6562027936     4.4708792014    -3.4605960481
H    -13.2365585957     5.5088251860    -3.7905292354
O     -9.4958500417     8.2659161185     0.3188121792
H    -13.1340977404     3.2366871490    -4.5189500716
H     -9.9818386121     0.8394650894    -1.5024274723
H      0.5418989718    -7.4172423008     2.5575757538
C      0.1463697472    -6.5619568211     3.1145975250
H      2.0598867067    -6.0047188439     3.9321517016
H      2.3863267162    -5.6457420716     6.3918750181
C      0.9910458745    -5.7692763961     3.8888934453
O     -2.0097519189    -7.1777093244     2.2936726218
C     -1.2164478250    -6.2723969579     3.0174999392
C      1.8404051755    -4.7416361658     6.7059802344
H      1.4572205445    -2.5732668866     3.0839472884
H      0.9300172932    -5.0661133290     7.2351465923
H      3.3970131396    -1.7498040816     1.7628502009
C      2.4745159802    -2.7341165435     3.4566925268
H      2.4682832223    -4.1863600953     7.4242761439
C      3.5573867670    -2.2744754862     2.7100028942
C      0.4821963372    -4.6670111696     4.6038090696
C      1.4471018990    -3.8515944955     5.4979156385
C     -1.7365324563    -5.1945527740     3.7323841904
C      2.6815387308    -3.4159005820     4.6723073367
C     -0.8910693375    -4.3940560363     4.5095879008
C      4.8674684105    -2.4774698862     3.1494214383
O      5.8990256464    -2.0727814949     2.2862822528
H     -2.7997296725    -4.9539514403     3.6633463409
C      4.0022514173    -3.6220151812     5.0993890588
C      5.0870963942    -3.1654792833     4.3415592822
C      6.9667213652    -1.3946352668     2.7919117126
C      0.7770635350    -2.5704608173     6.0597656480
H     -1.3259488615    -3.5478120525     5.0490806114
H      0.4002636679    -1.9163640108     5.2571422116
H      4.2061700170    -4.1527803688     6.0336764053
H     -0.0635776743    -2.8198127587     6.7301983277
O      7.1577985057    -1.0701486563     3.9387080316
H      6.1062729670    -3.3337802777     4.6966394007
H      1.5141354086    -1.9956496977     6.6431611086
H      8.5251418232     0.8091052097     0.2232463866
C      9.2692466120     0.5559707447     0.9850621807
H     10.7013793622     2.0117072849     0.2994859265
H     14.7132325665     1.6968918898     3.0441198851
C     10.4886572452     1.2284074716     1.0349849962
O      7.7663114154    -1.1519213178     1.7155150095
C      8.9731867750    -0.4575232843     1.8991385784
C     13.7791905210     1.1131626172     3.0724754813
H     13.3240433262    -0.4262958485     0.4716507324
H     14.0292566047     0.0683304111     2.8277347167
H     14.4956222651    -0.4711305422    -1.7225393954
C     13.6642547646     0.5113928404     0.0191686182
H     13.3910903759     1.1468530145     4.1052053376
C     14.3167647427     0.4802447469    -1.2116160376
C     11.4492361987     0.8977376361     2.0113243178
C     12.7611187420     1.7167808803     2.0698674110
C      9.9211524139    -0.8064003216     2.8595172925
C     13.4282207031     1.7367300723     0.6734337231
C     11.1443151267    -0.1283914488     2.9187459718
C     14.7500552547     1.6593734373    -1.8216268699
O     15.3081362465     1.5469605577    -3.1058514508
H      9.7046631182    -1.5990869042     3.5793271137
C     13.8595556905     2.9157671484     0.0463301395
C     14.5075480821     2.8799169263    -1.1939294852
C     16.4582907587     2.2178417771    -3.3932673465
C     12.4073032569     3.1433434390     2.5655031319
O     16.7321723633     1.8997977081    -4.6899397092
H     11.8655884066    -0.4207745122     3.6871818453
H     11.8907242043     3.0775082437     3.5364763480
H     13.6889594371     3.8880427798     0.5173244754
H     13.3157108743     3.7541069740     2.7069713795
O     17.1003220259     2.9280774008    -2.6585202174
H     14.8381093565     3.8105881124    -1.6607058915
H     11.7388859155     3.6693727044     1.8650517095
H    -10.9767197381    -3.9962658568    -3.2807565080
C     -9.9387494700    -4.3195854613    -3.3875001640
H    -10.3737593828    -6.3294806620    -2.7667605589
H     -6.6234988768    -7.6859993054    -4.7953511123
C     -9.5872715214    -5.6412073976    -3.0886470936
C     -8.9635016971    -3.4080772526    -3.7874672092
C     -7.4812564068    -8.1824720882    -4.3135674328
H     -7.6121145361    -6.2650737862    -0.5425344856
H     -8.3458753544    -8.0919875390    -4.9905736139
H     -5.7829937393    -6.3451796594     1.1192343731
C     -6.7203339615    -6.8649344126    -0.7542691093
H     -7.2484364653    -9.2562524865    -4.2072519269
C     -5.6939919793    -6.9096496302     0.1875472017
C     -8.2586067273    -6.0788289802    -3.2013287195
C     -7.8275216539    -7.5426971342    -2.9436685849
C     -7.6394560698    -3.8349139107    -3.9129903492
C     -6.6255477539    -7.5726055980    -1.9691826778
C     -7.2853271541    -5.1503732177    -3.6202507752
C     -4.5352221461    -7.6468836763    -0.0728080657
O     -3.5109969414    -7.8119499412     0.8756469386
H     -6.8825306531    -3.1136374289    -4.2363947037
C     -5.4638952766    -8.3215760033    -2.2114949339
C     -4.4339056497    -8.3581501748    -1.2646653678
C     -2.9354016205    -6.7008802115     1.4152119954
C     -8.9682800515    -8.3818090466    -2.3103514921
H     -6.2371691372    -5.4565083995    -3.7064741751
H     -8.6024120133    -9.3992223197    -2.0978030476
H     -5.3467927576    -8.8865121329    -3.1405426048
H     -9.3214764147    -7.9465727468    -1.3617080980
O     -3.1845276736    -5.5479159908     1.1599982662
H     -3.5272229914    -8.9412120799    -1.4547841581
H     -9.8288701307    -8.4695088442    -2.9961361687
O     -9.2477821306    -2.0921501255    -4.1883491998
C     18.6651123480     1.5536731289    -6.0439082307
C     17.8775789882     2.4367926923    -5.3024940036
C     18.1731611537     3.8031272395    -5.2935891426
C     19.2769657724     4.2750510313    -6.0097014244
C     20.0716100232     3.3901167057    -6.7470385512
C     19.7654478140     2.0252041889    -6.7646408137
H     17.5560650202     4.4920459500    -4.7128788093
H     20.3774427399     1.3227062871    -7.3405381385
H     18.4034715090     0.4912180355    -6.0449735387
H     19.5088830786     5.3454847684    -5.9939646462
H     20.9333968246     3.7667686899    -7.3085004509
C     -8.9299340727     8.1671567454     1.5538777152
O     -9.0730669319     7.2805079938     2.3602606292
O     -8.1670442750     9.2894713501     1.6801322124
C     -7.4344862115     9.4955736830     2.8616588024
C     -6.5983490072     8.5255022022     3.4211853839
C     -5.8317095155     8.8395602943     4.5472402319
C     -5.8873440654    10.1228233529     5.1023170293
C     -6.7159578981    11.0955908135     4.5326109107
C     -7.4862726797    10.7789210724     3.4107275481
H     -6.5613476504     7.5229368162     2.9899308681
H     -5.1829110086     8.0731684332     4.9847056011
H     -5.2825270270    10.3649806243     5.9828790464
H     -6.7647899996    12.1044966022     4.9563736049
H     -8.1382883838    11.5239100049     2.9450159784
