158
pc config_6170 from config_6170.mcos (coord_rad bohr -> angstrom)
C      5.1436368696     7.6600780270    -0.0302472566
C      3.8781567951     8.0567063488    -0.4586864317
C      3.3892294022     7.6585723648    -1.7186117569
C      4.2112406093     6.8570777566    -2.5256693010
C      5.9469876470     6.8514337779    -0.8369540774
C      5.4819470768     6.4628344286    -2.0911705235
C      7.6512077185     5.2576785361    -0.3686880239
O      7.2405053620     6.5572690438    -0.3723329026
O      7.0268377990     4.2892617747    -0.7273115397
H      5.5218040120     7.9684589570     0.9494454953
H      3.8701135229     6.5263592149    -3.5106048124
C     -1.0223064749     7.0113400965     0.7770558172
C     -0.1009464574     6.0797596613     0.2891566900
C      0.8639552334     6.4718595621    -0.6369907569
C      0.9426165139     7.8037070544    -1.0902564873
C      0.0222847880     8.7324371532    -0.5807189056
C     -0.9470730820     8.3330611059     0.3461784465
H     -0.1452036469     5.0406368916     0.6234043285
H      0.0500277973     9.7788758959    -0.8975345745
H     -1.6611676094     9.0585760545     0.7484092116
H      1.5825216999     5.7300131826    -1.0020708958
C      1.9955687372     8.1612380567    -2.1668576677
C      1.5446302390     7.5113168120    -3.5009439249
H      0.5312472105     7.8606427729    -3.7558728782
H      1.5124219736     6.4121563416    -3.4332880429
H      2.2174246711     7.7913436749    -4.3302883120
C      2.0923441444     9.6911564106    -2.4010957312
H      1.1474010317    10.0943388834    -2.8047140809
H      2.8876484022     9.9014556798    -3.1341941254
H      2.3358174555    10.2365072471    -1.4751393757
O     -1.9552326753     6.7147305613     1.7847025826
H      3.2565083143     8.6726596019     0.2001408074
H      6.1014545789     5.8269826463    -2.7284366269
H      5.2626479635    -6.0922871980    -2.0120284305
C      5.2737096061    -6.6098937126    -1.0475367358
H      3.3218989704    -7.4814626231    -1.3129845179
H      3.9694929409   -10.1340577758     2.5517229162
C      4.1914858705    -7.3942004621    -0.6528235328
O      7.4728415002    -5.7167292101    -0.7103501410
C      6.3829917024    -6.4536806439    -0.2147415693
C      3.0913237212    -9.4781527643     2.4196362696
H      2.4537221725    -6.5210600282     2.0827947489
H      2.1914107151   -10.0682902964     2.6562854189
H      0.3480364553    -5.2003786052     2.0060719029
C      1.5947831616    -6.9034237150     1.5207460902
H      3.1565010060    -8.6574054689     3.1516920182
C      0.4199344751    -6.1555388961     1.4765827228
C      4.2034410731    -8.0574938277     0.5901748963
C      2.9967767071    -8.9519618707     0.9636477094
C      6.4146571413    -7.1160108607     1.0105110356
C      1.6891778317    -8.1328581763     0.8391769486
C      5.3307927854    -7.9052093257     1.4120884316
C     -0.6825114370    -6.6036269215     0.7456867387
O     -1.8573377135    -5.8368772494     0.8234925618
H      7.2774624099    -6.9995058289     1.6712887994
C      0.5711537259    -8.5779433781     0.1167867740
C     -0.6072192176    -7.8233706220     0.0766312878
C     -2.5096290656    -5.5100342058    -0.3274560190
C      3.0048048901   -10.1829868214     0.0204851924
H      5.3791357491    -8.4039952767     2.3842402892
H      2.8709072984    -9.8959519005    -1.0347275424
H      0.6021832097    -9.5266274404    -0.4264074795
H      3.9708375306   -10.7060196841     0.1064304013
O     -2.2016794691    -5.8062476166    -1.4562822473
H     -1.4625457219    -8.1813478469    -0.5015029519
H      2.2086795540   -10.8984068366     0.2905155536
H     -2.9843284636    -3.3951751078    -2.1950274191
C     -4.0507039791    -3.5293415376    -1.9988362798
H     -4.6351308887    -2.4019775113    -3.7316182412
H     -7.2966739829    -4.3732132404    -4.8511433220
C     -4.9938915733    -2.9727445329    -2.8705714643
O     -3.5849970358    -4.7765014606     0.0749831232
C     -4.4669489366    -4.2669909015    -0.8925567768
C     -8.0860266830    -3.7999667637    -4.3389868947
H     -6.9883851470    -0.5368837467    -1.8639155629
H     -8.8131575457    -3.4705618026    -5.1014544783
H     -8.6285378513     0.8668362368    -0.6299975384
C     -8.0603260056    -0.7339023570    -1.9733650699
H     -8.5976742985    -4.4825627054    -3.6416324901
C     -8.9738085685     0.0527665050    -1.2745695956
C     -6.3697567581    -3.1326831688    -2.6438215052
C     -7.4530450152    -2.5884079081    -3.6060681871
C     -5.8336314365    -4.4265559280    -0.6524904802
C     -8.5032163602    -1.7804702814    -2.8062107338
C     -6.7766944214    -3.8681425119    -1.5131446289
C    -10.3456726579    -0.1892259437    -1.3762570715
O    -11.2006440517     0.7056654802    -0.7101845756
H     -6.1506272318    -4.9919367757     0.2294004303
C     -9.8845363879    -2.0063152734    -2.9086878359
C    -10.7989028374    -1.2121288073    -2.2066113592
C    -12.2328209625     0.2139686448     0.0288976560
C     -6.8535090586    -1.6502948193    -4.6860084200
O    -12.8578318091     1.3153570628     0.5340677327
H     -7.8430481008    -3.9953328179    -1.2971221633
H     -6.1525726194    -2.1938003963    -5.3429989025
H    -10.2706355263    -2.8076913980    -3.5448349539
H     -7.6639623600    -1.2501514548    -5.3161897306
O    -12.5305723956    -0.9432875679     0.2002173928
H    -11.8694498347    -1.4127180009    -2.2909223255
H     -6.3209258201    -0.7948548485    -4.2404647937
H     11.2921370419     4.8400178824    -0.8122105843
C     10.8976640677     3.9909633932    -0.2453415565
H     12.6794470483     2.8083396927    -0.4875136043
H     12.9320157382     1.4168529580     2.6822242379
C     11.6741434263     2.8414245180    -0.0578148789
C      9.6094935912     4.0713876807     0.2759081894
C     12.3830052885     0.4887914201     2.4553163386
H     11.3887436705    -1.8370811384     2.4690251428
H     13.0399126971    -0.3618720985     2.7073789652
H     10.0812201005    -3.8069590401     1.7713327638
C     10.9646337026    -1.8579568883     1.4611206163
H     11.4987103307     0.4526544745     3.1116056497
C     10.2306697562    -2.9836287251     1.0689487387
C     11.1689072973     1.7508597284     0.6661498460
C     11.9920589737     0.4720156190     0.9543410258
C      9.1018153835     2.9992476836     1.0145502109
C     11.1550154653    -0.7769096754     0.5868989273
C      9.8679022408     1.8499353794     1.1988637371
C      9.6588462531    -3.0383998968    -0.2007748824
O      8.9764701481    -4.1640697303    -0.6922645898
H      8.0903797370     3.0528172780     1.4251980354
C     10.5892991348    -0.8551288701    -0.7010768678
C      9.8574338511    -1.9766135062    -1.0856117513
C      7.9595559312    -4.6921422267     0.0449565895
C     13.3044997139     0.4267831492     0.1292582903
H      9.4432435220     1.0114296434     1.7611902015
H     13.1128399406     0.4849684829    -0.9543235797
H     10.7091470802    -0.0242514471    -1.4045246698
H     13.9817213639     1.2524970429     0.4085534388
O      7.5675427386    -4.3270098238     1.1263459347
H      9.4120606435    -2.0345480388    -2.0838141024
H     13.8309118618    -0.5207986196     0.3271142125
O      8.9206566970     5.2876670908     0.1265358945
C    -15.0662080216     2.0011529773     1.1040893180
C    -13.9850109957     1.1534957192     1.3571021644
C    -14.0163681007     0.2830129021     2.4502213793
C    -15.1447987305     0.2487452136     3.2748609105
C    -16.2310301304     1.0928227398     3.0189189907
C    -16.1918898737     1.9719606128     1.9312157819
H    -13.1705626669    -0.3799271332     2.6438498441
H    -17.0348754123     2.6397123294     1.7230331929
H    -15.0105746348     2.6828574733     0.2501579095
H    -15.1658196284    -0.4402713933     4.1260532201
H    -17.1117493065     1.0642025093     3.6695696034
C     -2.7463511108     5.6134280651     1.6524634237
O     -2.7677794334     4.8282713389     0.7362553423
O     -3.5186925483     5.6013564553     2.7751676590
C     -4.4540198548     4.5665625930     2.9511585607
C     -5.7385416975     4.9388226303     3.3520157931
C     -6.6954635904     3.9635588672     3.6454163491
C     -6.3585632624     2.6096107870     3.5433476991
C     -5.0683291011     2.2381307621     3.1483968550
C     -4.1106425387     3.2145656390     2.8600614696
H     -5.9772776507     6.0039467916     3.4281908658
H     -7.7009869920     4.2670532436     3.9560330439
H     -7.1035180188     1.8397825300     3.7717324023
H     -4.7965231160     1.1799219863     3.0697461259
H     -3.1049092022     2.9260168010     2.5467202912
