158
pc config_6510 from config_6510.mcos (coord_rad bohr -> angstrom)
C     14.3090232293     0.2547188237    -2.9955150493
C     14.8122790513     1.5264845161    -2.6998238592
C     14.7455073460     2.0328148290    -1.3929697928
C     14.1598905814     1.2271835566    -0.3961217106
C     13.7267686201    -0.5291986100    -2.0029209943
C     13.6671644951    -0.0423118971    -0.6940429133
C     12.1075314279    -2.2811033223    -1.9814543530
O     13.3365662196    -1.8307986973    -2.3602548574
O     11.2645694479    -1.6820111105    -1.3593132908
H     14.3613712519    -0.1390501158    -4.0153077826
H     14.0847636079     1.5995319827     0.6312057720
C     12.3324148650     5.7944148631     1.0918531075
C     13.5855115551     5.6103952491     1.6703253488
C     14.5593141544     4.8321918647     1.0346078543
C     14.2885010857     4.2195866743    -0.1983239809
C     13.0127830268     4.4046022396    -0.7677652345
C     12.0452135730     5.1786720965    -0.1294887265
H     13.7946299509     6.0809004270     2.6360363076
H     12.7648543997     3.9211564469    -1.7187603616
H     11.0628106465     5.3116427844    -0.5886520396
H     15.5330238603     4.7090097530     1.5172896566
C     15.3405140669     3.4023847192    -0.9857831383
C     15.7642266821     4.2416112568    -2.2193439699
H     16.1351562950     5.2241155537    -1.8859212987
H     14.9216428965     4.4173487523    -2.9072565529
H     16.5765990332     3.7473805200    -2.7799004511
C     16.6151005726     3.1320622098    -0.1439519878
H     17.1336876495     4.0728443245     0.1100185041
H     17.3141901557     2.5087688257    -0.7244630130
H     16.3855502530     2.5969269079     0.7915151172
O     11.3806416460     6.5096594592     1.8379093805
H     15.2576681411     2.1175410712    -3.5051600164
H     13.2072105801    -0.6472258392     0.0910161584
H      0.4539850498    -6.0831625977     3.4260813706
C     -0.2404489687    -5.2432490505     3.3499985749
H     -1.8425381372    -6.3253784348     4.2867154195
H     -4.9473598274    -3.5420820510     6.0469853906
C     -1.5492760278    -5.3768580685     3.8281726385
O      1.4865391489    -3.8117790338     2.3279472355
C      0.1685175049    -4.0548775344     2.7481283755
C     -3.9651757918    -3.4733011101     5.5479056480
H     -4.1016004383    -5.3463665778     1.7481346062
H     -3.7766619984    -2.4178661816     5.2937389339
H     -5.7752146939    -4.7845651803    -0.0042665747
C     -4.8784491757    -4.6033582624     1.9587771501
H     -3.1965291396    -3.7864902028     6.2725806650
C     -5.8112344667    -4.2912162308     0.9720167653
C     -2.4665370818    -4.3192192789     3.7293001512
C     -3.9036848432    -4.3914047830     4.2992960441
C     -0.7325276309    -2.9918052328     2.6529796763
C     -4.9190800781    -3.9624022491     3.2128253483
C     -2.0355941020    -3.1193407021     3.1297822323
C     -6.8037548002    -3.3360066205     1.2049490712
O     -7.6426168105    -3.0181917866     0.1241963152
H     -0.3983952043    -2.0591040622     2.1878861967
C     -5.9152419624    -2.9986133937     3.4325277584
C     -6.8454069154    -2.6826605826     2.4350107290
C     -8.9854529782    -2.9133068255     0.3282035555
C     -4.2773282798    -5.8259753435     4.7556387730
H     -2.7301256133    -2.2784891760     3.0272786155
H     -4.1857711649    -6.5564586536     3.9358599513
H     -5.9773993652    -2.4717500275     4.3888076083
H     -3.6385984155    -6.1586944529     5.5921843093
O     -9.5862789735    -3.0598851905     1.3650314470
H     -7.6152790623    -1.9323744310     2.6286040879
H     -5.3227462815    -5.8406341073     5.1033471134
H    -10.5636109720    -0.6281445963    -2.1576971957
C    -11.3139800224    -1.3311258779    -1.7826688485
H    -12.9787322723    -0.2488664871    -2.6170911884
H    -15.9533795313    -2.6825754259    -0.0737844947
C    -12.6678440153    -1.1275845082    -2.0416352436
O     -9.5021764503    -2.6063738483    -0.8944635746
C    -10.8888735800    -2.4288528596    -1.0305762915
C    -16.0656096451    -2.7651221672    -1.1667447942
H    -14.7665767554    -0.5510764770     0.4829494409
H    -15.8793488735    -3.8134255033    -1.4582354094
H    -15.4856535008     1.7242765078     1.1855984496
C    -15.2808725820     0.0999113681    -0.2323328350
H    -17.1122153924    -2.5273898020    -1.4161329507
C    -15.6757854188     1.3755051566     0.1657533672
C    -13.6344585278    -2.0320924530    -1.5593800133
C    -15.1202046553    -1.7951077801    -1.9224626061
C    -11.8330946494    -3.3386762518    -0.5588062766
C    -15.5253329177    -0.3499133865    -1.5449193161
C    -13.1946881415    -3.1367606133    -0.8138562638
C    -16.3112984376     2.2372622685    -0.7312139412
O    -16.7559812618     3.4693110443    -0.2230061445
H    -11.5134828043    -4.1985740504     0.0342062392
C    -16.1738376010     0.5209625530    -2.4340828201
C    -16.5712501395     1.8005547012    -2.0286115673
C    -16.5158544948     4.6072967744    -0.9318600418
C    -15.2865351954    -2.0682150299    -3.4402443792
O    -17.0646073467     5.6070943653    -0.1856203834
H    -13.9116781609    -3.8633060815    -0.4213536738
H    -14.9402845005    -3.0886346807    -3.6703094103
H    -16.3831648261     0.2113218309    -3.4618237934
H    -16.3444849672    -1.9941466446    -3.7466307177
O    -15.9430402833     4.7085246379    -1.9895209916
H    -17.0637057663     2.4672049022    -2.7402661799
H    -14.6969692940    -1.3671452742    -4.0525235566
H     12.0295879039    -5.9627446577    -1.5289068812
C     11.0241433761    -5.6068641043    -1.7743171414
H     10.0746384138    -7.4642688986    -1.2469684831
H      8.3900515366    -8.8401719292    -1.6785756072
C      9.9165197718    -6.4475425122    -1.6178286144
C     10.8683302132    -4.3026696868    -2.2363051076
C      7.6626729930    -8.2297895769    -1.1157589765
H      7.5826599663    -5.6951987253     0.6050096046
H      6.7314622836    -8.8121916645    -1.0281605549
H      5.8100735084    -4.6118220630     1.9728036554
C      6.5594619255    -5.6368997434     0.2183370883
H      8.0551415590    -8.0690834444    -0.0986781950
C      5.5715876655    -5.0266521479     0.9885524647
C      8.6267097519    -5.9925880168    -1.9314313002
C      7.3695945926    -6.8910230473    -1.8422911998
C      9.5907113796    -3.8421997102    -2.5667862464
C      6.2558767336    -6.1611050023    -1.0536279402
C      8.4832423083    -4.6732605566    -2.4053595531
C      4.2616183348    -4.9216391612     0.5151954497
O      3.3522760468    -4.2095243096     1.3144175554
H      9.4574453993    -2.8187413140    -2.9255451020
C      4.9382544049    -6.0422972926    -1.5222548172
C      3.9509579158    -5.4222803767    -0.7474780475
C      2.1117923662    -4.7270593493     1.5355715683
C      6.9288526399    -7.2316324519    -3.2900879043
H      7.4879269219    -4.2872886057    -2.6504053679
H      6.6338741057    -6.3317535164    -3.8534757796
H      4.6615423336    -6.4280401389    -2.5073595209
H      7.7660955106    -7.7050325893    -3.8277293184
O      1.6637539410    -5.7684618246     1.1207037529
H      2.9306262470    -5.3434333715    -1.1296595491
H      6.0820717592    -7.9396526349    -3.2944743490
O     12.0376749642    -3.5558474967    -2.4581725302
C    -18.1550100601     7.6933350893    -0.5527312568
C    -16.9870552109     6.9327829470    -0.6455907157
C    -15.7954022503     7.5251049625    -1.0726629207
C    -15.7839161341     8.8769813320    -1.4286307662
C    -16.9545748180     9.6385943977    -1.3422992657
C    -18.1432478353     9.0460078545    -0.9025766157
H    -14.8846315471     6.9270434569    -1.1452623007
H    -19.0648419580     9.6332743922    -0.8275379518
H    -19.0711428854     7.2088561887    -0.2020204901
H    -14.8482459607     9.3338623467    -1.7684307228
H    -16.9399214623    10.6981838987    -1.6195875242
C     10.6608203002     7.4901175619     1.2244111881
O     10.7381515718     7.8490227959     0.0746671013
O      9.8351988037     7.9772648904     2.1932678829
C      8.9467265980     9.0202508570     1.8806509324
C      7.6372250382     8.8841252476     2.3472568539
C      6.7132659493     9.9154800755     2.1604598731
C      7.1059879430    11.0891314596     1.5079646224
C      8.4198943779    11.2264585056     1.0466821729
C      9.3451380174    10.1963003743     1.2392049380
H      7.3548049242     7.9586744785     2.8579188302
H      5.6883029018     9.7980750093     2.5285828539
H      6.3853359007    11.9001519141     1.3571382911
H      8.7364619269    12.1432045772     0.5376915495
H     10.3693165907    10.2983309139     0.8742985760
