158
pc config_1040 from config_1040.mcos (coord_rad bohr -> angstrom)
C      6.9139855123     4.5380611903     1.3197795983
C      6.7381060621     5.4642527482     0.2930652194
C      7.8065946907     6.2650541663    -0.1572946142
C      9.0605395665     6.1007814291     0.4507263438
C      8.1721264357     4.3733684119     1.9067922101
C      9.2331842286     5.1649228374     1.4767183691
C      8.0071949888     2.2293252226     2.9349608376
O      8.3960132729     3.5332100462     3.0107185631
O      7.4855388431     1.6706364903     2.0013015532
H      6.0744373888     3.9195392744     1.6464271590
H      9.9185025491     6.7001956946     0.1335338255
C      5.6335368986     5.4598268388    -4.7152553840
C      5.0717159499     6.6093440140    -4.1619192295
C      5.6525968589     7.2017487114    -3.0346016002
C      6.8139864999     6.6703158894    -2.4531484142
C      7.3795566458     5.5170639640    -3.0319631842
C      6.7960716720     4.9290531445    -4.1524141948
H      4.1601321290     7.0332311104    -4.5890625849
H      8.2789912523     5.0689665506    -2.5963030298
H      7.2335047571     4.0312032074    -4.6003217328
H      5.1818131595     8.0955775859    -2.6155371405
C      7.5317475201     7.3264601399    -1.2494415249
C      8.8407157448     7.9719859244    -1.7746703888
H      9.5357203977     7.2205171324    -2.1829105723
H      9.3598892172     8.5310913057    -0.9769442974
H      8.6019612675     8.6827101749    -2.5821124980
C      6.6793592143     8.4529960298    -0.6077786568
H      6.5212824725     9.2868893011    -1.3135396513
H      7.2038946600     8.8540962385     0.2743839100
H      5.6949211557     8.0860042655    -0.2756819492
O      5.1683372276     4.8634397817    -5.8990658136
H      5.7503637714     5.5646054028    -0.1697972825
H     10.2116363391     5.0361400616     1.9502454980
H      1.1447022545    -8.1856805386     1.0260128571
C      1.0839592633    -8.1144076566    -0.0626683636
H     -0.9912940007    -8.6773851234    -0.1171460419
H     -1.8089485917   -10.5302225782    -1.6006182817
C     -0.1189359262    -8.3860249404    -0.7121908736
O      3.4692977837    -7.5216447876    -0.2222250349
C      2.2025683871    -7.7130167453    -0.7992539986
C     -1.7399583344   -10.2103664701    -2.6528242585
H     -4.0179581692    -9.6158281378    -1.7164082923
H     -0.8689849436   -10.7152340085    -3.1008325221
H     -5.8575387721    -8.2601467503    -0.7499097630
C     -3.9042046862    -8.5298900995    -1.6548671289
H     -2.6421920467   -10.5600933770    -3.1841023157
C     -4.9468367273    -7.7716209593    -1.1105579952
C     -0.2295394934    -8.2890781771    -2.1135360526
C     -1.5713891262    -8.6738489388    -2.7821792260
C      2.1083401022    -7.6220974326    -2.1849810925
C     -2.7333704526    -7.9042752664    -2.1095644501
C      0.9048262811    -7.9008841116    -2.8424348840
C     -4.8472865306    -6.3865312347    -1.0137647016
O     -5.8910280410    -5.7069929125    -0.3634169704
H      2.9924690391    -7.3170168524    -2.7536101072
C     -2.6396571155    -6.5029880520    -1.9945232297
C     -3.6795033383    -5.7527300181    -1.4485012135
C     -6.4204574624    -4.5968666276    -0.9496826518
C     -1.5880634906    -8.3268483606    -4.2936691310
H      0.8654460447    -7.8112479281    -3.9316546560
H     -1.4024627988    -7.2555250190    -4.4724083433
H     -1.7285651732    -5.9901428106    -2.3211498028
H     -0.8316214253    -8.9101102746    -4.8469999360
O     -6.1104065401    -4.1044220972    -2.0069216165
H     -3.5862249731    -4.6669136184    -1.3710686310
H     -2.5760283930    -8.5705648996    -4.7161936249
H     -6.4479882386    -1.7331945783    -0.8448867276
C     -7.5333578497    -1.8013424745    -0.7394853883
H     -7.8413134489     0.2770738685    -1.1976410775
H    -12.5195179805    -0.4283494459    -1.3929357699
C     -8.3251030943    -0.6737243397    -0.9489012017
O     -7.3873257935    -4.1729037631    -0.0879838849
C     -8.1277192316    -3.0232666361    -0.4102886341
C    -12.0528608743     0.3575327724    -0.7738823191
H    -10.1016092169     0.6087215315     1.5578448830
H    -12.5922622123     1.2995853448    -0.9626727320
H     -9.3587694141     2.4927010901     2.9747831827
C     -9.8803204236     1.5751310356     1.0922908668
H    -12.1954484478     0.0968705457     0.2870955849
C     -9.4511406100     2.6307719914     1.8949740483
C     -9.7275518689    -0.7332856965    -0.8247233716
C    -10.5545787147     0.5384544343    -1.1308688197
C     -9.5111243887    -3.0919059472    -0.2720167677
C    -10.0126502887     1.7281960102    -0.3023321399
C    -10.3102680484    -1.9617359730    -0.4783250326
C     -9.1499468886     3.8699127545     1.3228182524
O     -8.6237758069     4.9499137243     2.0514630021
H     -9.9653985702    -4.0485688848     0.0045787528
C     -9.6941524862     2.9731349748    -0.8655738296
C     -9.2658644061     4.0306470566    -0.0554321925
C     -9.2471586449     5.3418573848     3.1974699125
C    -10.4657680370     0.8043617047    -2.6562855276
O     -8.5049717150     6.3872185436     3.6601072410
H    -11.3938891486    -2.0532732317    -0.3623287942
H    -10.8154855768    -0.0845034093    -3.2055270075
H     -9.7738886919     3.1342060037    -1.9444728687
H    -11.1030326654     1.6559261055    -2.9517392840
O    -10.2396457918     4.8672812506     3.6940431975
H     -9.0092272553     4.9987421835    -0.4965917994
H     -9.4331175435     1.0124846835    -2.9791632298
H      5.9886812094     0.3814949320     3.8079044663
C      6.7982619371    -0.2193545600     4.2293905368
H      5.5682320069    -1.9716302168     4.4373075183
H      5.4163895295    -3.2135616429     6.6273540135
C      6.5680142157    -1.5480541514     4.5821329144
C      8.0732140105     0.3344080525     4.3794068428
C      6.3798965785    -3.7095504756     6.8267126023
H      8.0666085523    -3.9865577825     2.9484501550
H      6.9052622275    -3.1256472050     7.5995616622
H      7.0237841802    -5.2605596722     1.0840532693
C      7.1439260857    -4.5493899867     3.1257547072
H      6.1772912837    -4.7120903572     7.2418480011
C      6.5621709146    -5.2581024252     2.0765352531
C      7.5972682003    -2.3498484563     5.1146504694
C      7.2621212498    -3.7955703902     5.5533155289
C      9.0956251459    -0.4446696299     4.9133182352
C      6.5473106801    -4.5428874219     4.4020035485
C      8.8682490426    -1.7772247159     5.2751029265
C      5.3711285603    -5.9630445368     2.2627692889
O      4.9075646407    -6.7284471786     1.1800467174
H     10.0874320889     0.0015682360     5.0372954390
C      5.3572505641    -5.2648005816     4.5805304225
C      4.7781788789    -5.9779019189     3.5243985728
C      3.5856152323    -6.6931303140     0.8535362255
C      8.5358262146    -4.6012280294     5.9202466140
H      9.6971069657    -2.3615339055     5.6844379196
H      8.2555254523    -5.6353789342     6.1772338918
H      4.8621805290    -5.2850462242     5.5555424371
H      9.2509439716    -4.6451292671     5.0829337025
O      2.7099982624    -6.0594520043     1.3905072534
H      3.8441735066    -6.5212568319     3.6839262408
H      9.0483296500    -4.1642829043     6.7948768963
O      8.3502996717     1.6909090000     4.1388047484
C     -7.8640182734     7.3133276977     5.7591295187
C     -8.8860280228     7.0308073943     4.8497905509
C    -10.1868160507     7.4803561403     5.0932183541
C    -10.4641088995     8.1940583751     6.2629236025
C     -9.4427004270     8.4723212101     7.1779145034
C     -8.1390203382     8.0316242477     6.9255871015
H    -10.9835801565     7.2562587386     4.3809335099
H     -7.3307640345     8.2464654292     7.6329879373
H     -6.8518381250     6.9618291516     5.5378969532
H    -11.4867736502     8.5382224194     6.4511203251
H     -9.6644411524     9.0342423907     8.0916511350
C      3.8393743247     4.5987116995    -6.0360428386
O      2.9590716452     4.8130472729    -5.2388079047
O      3.7233484701     4.0263551233    -7.2676357247
C      2.4546602450     3.6276217950    -7.7226336310
C      1.3464667729     4.4798420420    -7.7207626568
C      0.1417579019     4.0466677919    -8.2818759275
C      0.0483404337     2.7755892422    -8.8597074734
C      1.1628079686     1.9301218155    -8.8718356946
C      2.3650804602     2.3620243250    -8.3056135702
H      1.4185974856     5.4690352950    -7.2635608664
H     -0.7260883061     4.7149444192    -8.2712167820
H     -0.8978787934     2.4430163568    -9.2999873125
H      1.1034734944     0.9340239692    -9.3234456414
H      3.2511373573     1.7200153424    -8.3053638985
