158
pc config_6980 from config_6980.mcos (coord_rad bohr -> angstrom)
C    -12.2469763184    -0.9558766885    -1.0575461393
C    -12.7935666363    -2.0846901576    -1.6653921853
C    -13.1553700118    -2.0767401103    -3.0272615368
C    -12.9539707705    -0.8970341667    -3.7598088944
C    -12.0362742139     0.2081726537    -1.8025665223
C    -12.4011773209     0.2323422574    -3.1456982835
C    -10.4464275754     1.3970455268    -0.4828465853
O    -11.5831873788     1.4103934446    -1.2338927808
O     -9.7384080679     0.4510006378    -0.2372357357
H    -11.9712902258    -0.9850244220    -0.0007092856
H    -13.2272540124    -0.8418257369    -4.8172660491
C    -17.1020979441    -4.8581640912    -1.3513141077
C    -16.0606094734    -5.7226808821    -1.6754441730
C    -14.9477998602    -5.2685515690    -2.3922558842
C    -14.8681591157    -3.9307522433    -2.8080284560
C    -15.9335061551    -3.0679825927    -2.4821593238
C    -17.0426316656    -3.5267967538    -1.7736376690
H    -16.1216020853    -6.7658648186    -1.3495769850
H    -15.8934820517    -2.0163134184    -2.7860881795
H    -17.8530687683    -2.8381800506    -1.5223552827
H    -14.1443504092    -5.9739383848    -2.6221745361
C    -13.6983874748    -3.3806694912    -3.6593658626
C    -12.5216594734    -4.3868914170    -3.7495072423
H    -12.8238139743    -5.3113992683    -4.2714812902
H    -12.1348008974    -4.6582771719    -2.7540825443
H    -11.6937894314    -3.9347076488    -4.3188365034
C    -14.2297581031    -3.1513783514    -5.0985600497
H    -14.6498128960    -4.0918174493    -5.4900758641
H    -13.4196675697    -2.8354546205    -5.7786384869
H    -15.0259917659    -2.3901900095    -5.1273597301
O    -18.2313511552    -5.4096419822    -0.7220103036
H    -12.9597076171    -2.9848550719    -1.0637950907
H    -12.2496121653     1.1545177023    -3.7155162498
H      2.0424414297     7.0961509772    -2.2322490568
C      2.6986778064     6.8002643752    -1.4079063422
H      4.3895348602     7.8985769111    -2.1598299030
H      7.3632464100     8.8076074479     1.1413081793
C      4.0245415499     7.2455737774    -1.3619147306
O      0.8818071534     5.4902190465    -0.5803673764
C      2.1921542674     5.9684762215    -0.4127963956
C      6.3649608443     8.3489281707     1.0335255299
H      6.5043208492     5.1207171518    -1.7016458942
H      6.1042269092     7.8535244173     1.9824859697
H      8.0735904129     3.2190283224    -1.5270222092
C      7.2428218716     5.1071208122    -0.8927314068
H      5.6377184050     9.1600611225     0.8685076957
C      8.1172670773     4.0266536941    -0.7923226496
C      4.8699495587     6.8584087218    -0.3112814979
C      6.3248957273     7.3657396484    -0.1650020893
C      3.0278469158     5.5645874491     0.6322120407
C      7.2801552121     6.1649785970     0.0375045690
C      4.3486179455     6.0068930979     0.6833225935
C      9.0608795019     3.9824983863     0.2382986648
O      9.9041405014     2.8799885908     0.4566224359
H      2.6413508488     4.9079208414     1.4153000803
C      8.2211309594     6.1007313869     1.0762849508
C      9.0990270051     5.0149427380     1.1710474863
C     10.6598238516     2.4150834591    -0.5776888858
C      6.7994198911     8.1404643053    -1.4219797213
H      4.9909599282     5.6708567200     1.5043944630
H      6.7352483502     7.5256346640    -2.3340068809
H      8.2806227826     6.8946843707     1.8260474460
H      6.2037826503     9.0571087926    -1.5754984383
O     10.7144509119     2.8511836028    -1.7017631047
H      9.8288256379     4.9620150926     1.9850785476
H      7.8519329876     8.4401889187    -1.2938437611
H     13.7401918364     0.7202230020     0.6580040495
C     13.4926190527     0.3434789323    -0.3394332979
H     15.3734681885    -0.6746494342    -0.5964906357
H     16.7909956544    -0.3149914333    -2.6307017045
C     14.4051961605    -0.4346967244    -1.0488129539
O     11.3487911921     1.3597553667    -0.0604360382
C     12.2438390416     0.6546918422    -0.8818272466
C     16.2832260353    -0.7421022121    -3.5103565339
H     17.8015090653    -2.4648487817    -2.4515280479
H     15.8541062879     0.0921803657    -4.0881407750
H     18.5490571701    -4.3882868399    -1.1050459973
C     17.0481930910    -3.1297932105    -2.0194997089
H     17.0395441090    -1.2373582408    -4.1436921447
C     17.4805508137    -4.2259429190    -1.2639936980
C     14.0836689246    -0.9247469520    -2.3301391137
C     15.1545986892    -1.7271314387    -3.1075543423
C     11.9056645474     0.1608631625    -2.1405830811
C     15.6820147888    -2.8856772747    -2.2275253980
C     12.8220230657    -0.6145973516    -2.8606209256
C     16.5496666337    -5.0870209217    -0.6852782527
O     16.9051621804    -6.2601028403     0.0012998939
H     10.9313020245     0.3936580349    -2.5760250715
C     14.7529062760    -3.7727729149    -1.6488768524
C     15.1877543236    -4.8616473473    -0.8959091308
C     17.8418550969    -6.1962898928     0.9880224164
C     14.5854126005    -2.3441636941    -4.4120226850
O     17.9551869709    -7.4755018966     1.4442868288
H     12.5305193264    -0.9819675526    -3.8487166570
H     13.7286779959    -3.0083165881    -4.2145950462
H     13.6787083854    -3.6057664761    -1.7826947336
H     14.2633375688    -1.5592895187    -5.1181758348
O     18.4331223105    -5.2200590125     1.3804445736
H     14.4659111729    -5.5502311964    -0.4453279941
H     15.3670078025    -2.9424935836    -4.9072405358
H     -8.7068956092     4.6800908734    -0.5593851979
C     -8.4417033257     4.1536363277     0.3629902898
H     -6.8171030332     5.4838797823     0.8448980953
H     -6.3769661127     3.4102355226     5.0844006895
C     -7.3866860110     4.6014149003     1.1555793468
C     -9.1699978325     3.0163624796     0.7180864034
C     -5.5333329762     3.5348497516     4.3835328084
H     -4.2575158121     6.7698092212     2.9209776559
H     -4.6852575067     3.9540990531     4.9483470057
H     -2.1887863505     6.9756908319     1.5983329294
C     -3.9121873744     5.9061024900     2.3459191312
H     -5.2340158968     2.5394410705     4.0180236645
C     -2.7393532831     6.0322397247     1.5920766488
C     -7.0443666867     3.9229924542     2.3419837289
C     -5.9050025500     4.4923578938     3.2210814819
C     -8.8517365588     2.3438429643     1.8966870281
C     -4.6362528181     4.7039349330     2.3604590578
C     -7.7918471697     2.7889882810     2.6952249506
C     -2.2627648704     4.9530442751     0.8505957490
O     -1.1470053100     5.0255855545     0.0003916116
H     -9.4115368317     1.4511618552     2.1852104171
C     -4.1512935664     3.6258256929     1.5939060465
C     -2.9793613328     3.7539443489     0.8511144846
C      0.0149782278     5.5603669320     0.4689688159
C     -6.4084736253     5.8176763709     3.8503988895
H     -7.5586069205     2.2340064109     3.6083901998
H     -6.6287992819     6.5798724247     3.0857810097
H     -4.7030617245     2.6798615242     1.5681667659
H     -7.3366910248     5.6281335895     4.4130358082
O      0.2310367634     6.0012624261     1.5716692557
H     -2.6069376941     2.9183751555     0.2503565753
H     -5.6666322414     6.2335667743     4.5540659045
O    -10.2771323849     2.6881006613    -0.0819328612
C     20.1991440490    -7.3652185183     2.4513633920
C     18.8575543138    -7.7569143163     2.4845666563
C     18.3893378206    -8.5685851776     3.5197910155
C     19.2517918311    -8.9770949412     4.5405195251
C     20.5917044705    -8.5757266512     4.5171584062
C     21.0613892099    -7.7686425003     3.4749038242
H     17.3381508450    -8.8722967878     3.5143773127
H     22.1100272206    -7.4531650546     3.4485891270
H     20.5631512546    -6.7301115947     1.6409182679
H     18.8725564108    -9.6114566906     5.3488823900
H     21.2732379084    -8.8909883623     5.3145931748
C    -18.7302834802    -4.7967155919     0.3877270130
O    -18.3050060886    -3.8092578482     0.9357179390
O    -19.8054392771    -5.5516013713     0.7502687411
C    -20.5495547417    -5.1886998580     1.8861140602
C    -21.0451432350    -3.8973033486     2.0889743602
C    -21.8614791340    -3.6372541863     3.1935297679
C    -22.1979206980    -4.6653879772     4.0811807325
C    -21.7113865524    -5.9595641124     3.8679656605
C    -20.8908528978    -6.2172885007     2.7667063389
H    -20.7764309733    -3.0941268431     1.3995951480
H    -22.2412746571    -2.6222183267     3.3526362243
H    -22.8404660683    -4.4554818013     4.9430746201
H    -21.9700905767    -6.7737674077     4.5534199357
H    -20.5007343776    -7.2218053215     2.5768645489
