62
pp config_54020 from config_54020.mcos (coord_rad bohr -> angstrom)
C      5.4146117607    -0.1697969270    -0.5868462028
C      4.4134243880    -1.3118173133    -0.2913188912
C      2.9768293674    -0.7740524748    -0.0681981954
C      2.7344369612     0.0772722105     1.2015026451
H      2.2774180734    -1.6347293895    -0.0333537984
H      2.6926993681    -0.1917918281    -0.9679058047
C      1.3199577975     0.7140106192     1.1899137885
C      1.0580949021     1.8212714711     0.1405773012
H      1.1181308174     1.1474143707     2.1913040925
H      0.5834909462    -0.1047124931     1.0619095993
C     -0.4404642577     2.2175970251     0.1039988478
H      1.3382483976     1.4398017936    -0.8603176995
C      1.9114428208     3.0743584864     0.4206956639
C     -1.4405441938     1.1612833591    -0.4294916716
H     -0.5475721683     3.1320704006    -0.5159062900
H     -0.7437868168     2.5111967015     1.1305293845
C     -2.8853535479     1.6640042021    -0.1837924408
H     -1.2961579031     0.2259559324     0.1448725790
C     -1.1958040712     0.8556889140    -1.9192741253
C     -4.0426136353     0.6745733207    -0.4762486771
H     -3.0388406017     2.5750161615    -0.7992497486
H     -2.9733166276     1.9940119469     0.8722392611
C     -4.0204500854    -0.5222017044     0.5047635601
H     -3.9160711511     0.2891360520    -1.5063963523
C     -5.3855408233     1.4295203689    -0.4190430650
C     -5.0422209282    -1.6558813065     0.2439465765
H     -4.1822170638    -0.1257634328     1.5286855700
H     -3.0100736740    -0.9781666433     0.5101523227
C      6.8896074333    -0.6055079311    -0.6163964461
H      5.2993793284     0.6235789997     0.1753262721
H      5.1402364626     0.2957579308    -1.5549652326
H      7.1801817851    -1.0831509659     0.3368907993
H      7.5564757124     0.2605825669    -0.7714252401
H      7.0941478101    -1.3265239212    -1.4260063005
C     -4.8001942558    -2.3623095920    -1.1028130144
H     -6.0584155721    -1.2153185912     0.2236507195
C     -5.0001912093    -2.6757340726     1.3985276318
H     -4.8825942404    -1.6700451617    -1.9582522548
H     -5.5322028826    -3.1744093742    -1.2614181023
H     -3.7893257770    -2.8110106167    -1.1302299151
H      4.7481151018    -1.8218952873     0.6350417079
C      4.3992724975    -2.3576284052    -1.4242555648
H      3.6918462323    -3.1754478384    -1.1997447848
H      5.3922642317    -2.8109575486    -1.5843867500
H      4.0849937876    -1.8936895368    -2.3782726486
H      3.4798451632     0.8951425363     1.2319223034
C      2.9066422372    -0.7629019260     2.4827674163
H      2.1823063492    -1.5990399424     2.5008858491
H      2.7337216755    -0.1489677997     3.3844111132
H      3.9181689958    -1.1961082541     2.5643455612
H      1.6714334952     3.4952665141     1.4153552495
H      1.7196976161     3.8596247423    -0.3319380024
H      2.9927062831     2.8549860429     0.4035352455
H     -0.1735400640     0.4815025291    -2.1000121332
H     -1.3318234627     1.7696294992    -2.5278294428
H     -1.8931468475     0.0910317003    -2.3020375895
H     -5.3872943718     2.2858395523    -1.1166074681
H     -5.5693481358     1.8239184314     0.5982314933
H     -6.2388658584     0.7827174316    -0.6852866206
H     -5.2060424263    -2.1926274591     2.3701953241
H     -4.0042403542    -3.1529334284     1.4645225567
H     -5.7462905801    -3.4773822691     1.2534443536
