62
pp config_53190 from config_53190.mcos (coord_rad bohr -> angstrom)
C      5.1367390269    -1.3642386666     0.4895705795
C      5.2927385879    -0.1406234276    -0.4443147912
C      4.2510468853     0.9616626372    -0.1282703187
C      2.7598776284     0.6264952613    -0.3817929121
H      4.5044505538     1.8643991732    -0.7222321341
H      4.3739150031     1.2555103163     0.9350222934
C      1.8816295278     1.7778648190     0.1687283885
C      0.3492363598     1.5447424246     0.2081884945
H      2.0843697301     2.6830583573    -0.4409049761
H      2.2184586307     2.0246097843     1.1971076439
C     -0.0266929954     0.4625268679     1.2490849082
H      0.0263736662     1.2047098242    -0.7947221915
C     -0.3632490808     2.8797071856     0.5031763056
C     -1.5009818656    -0.0205397587     1.2588269091
H      0.2216962296     0.8637825013     2.2534385067
H      0.6184153525    -0.4286187874     1.1126778229
C     -1.8321871371    -0.8355748758    -0.0147572096
H     -2.1556119795     0.8713689461     1.2935238869
C     -1.7602262653    -0.8443569151     2.5359214362
C     -3.3199755650    -1.2117819839    -0.2412507171
H     -1.2321491912    -1.7683899943     0.0196281193
H     -1.4831319696    -0.2858142101    -0.9119533629
C     -4.1750195053     0.0402305751    -0.5523491618
H     -3.7031617559    -1.6800360154     0.6858291224
C     -3.4162767554    -2.2569153714    -1.3705176032
C     -5.7065547746    -0.1679283808    -0.6451841312
H     -3.8148530422     0.4678213845    -1.5110017440
H     -3.9893394316     0.8167288697     0.2167649824
C      6.0124261159    -2.5713666278     0.1121092138
H      4.0789969797    -1.6877935113     0.4940468733
H      5.3622043393    -1.0453539170     1.5273108880
H      7.0892835012    -2.3436717772     0.1865347374
H      5.8113524174    -2.8971975152    -0.9245922568
H      5.8114986118    -3.4305097221     0.7757105921
C     -6.3174013616    -0.6155066230     0.6957253776
H     -5.9092818801    -0.9568483520    -1.3961111573
C     -6.3831113869     1.1267604302    -1.1360329425
H     -5.8952866662    -1.5722116410     1.0483187209
H     -7.4108099938    -0.7473463255     0.6087436240
H     -6.1316182148     0.1426332321     1.4797351755
H      5.1337626825    -0.4893459561    -1.4852458591
C      6.7116645674     0.4569582208    -0.3617925966
H      7.4881914064    -0.2760568883    -0.6388460932
H      6.9294245897     0.8035365848     0.6661957511
H      6.8161633618     1.3242353206    -1.0376120956
H      2.5120872637    -0.2962164705     0.1775659980
C      2.4846167717     0.3731818208    -1.8763003647
H      1.4265416698     0.1214107794    -2.0626331861
H      3.0905605623    -0.4605138119    -2.2705348452
H      2.7256082912     1.2746356050    -2.4707555189
H     -1.4618949716     2.7777440200     0.4908453451
H     -0.0922966805     3.6463449453    -0.2443435319
H     -0.0741379185     3.2637399397     1.4996740276
H     -1.1250385346    -1.7500878672     2.5506761706
H     -2.8108029735    -1.1724553274     2.6147358963
H     -1.5268878430    -0.2554319842     3.4406708359
H     -2.8002008417    -3.1443708985    -1.1410143856
H     -3.0534579507    -1.8335057876    -2.3260723337
H     -4.4515430358    -2.6034416148    -1.5307386354
H     -6.2148275829     1.9529961193    -0.4198489695
H     -7.4745493075     0.9939265408    -1.2431990607
H     -5.9822657463     1.4442404598    -2.1150078621
