62
pp config_58120 from config_58120.mcos (coord_rad bohr -> angstrom)
C     -4.4902769688     1.7922845463    -0.5748772330
C     -4.3586930713     0.9939597367     0.7486315135
C     -3.1830723155    -0.0146371478     0.7578783013
C     -3.1921451568    -1.1069351766    -0.3389867339
H     -3.1714556809    -0.5227238976     1.7446060313
H     -2.2346713694     0.5531644659     0.7022318183
C     -1.9393141673    -2.0145981943    -0.2369644327
C     -0.5609832037    -1.3703097384    -0.5298851217
H     -2.0688827468    -2.8700831726    -0.9322712679
H     -1.9175005705    -2.4531905449     0.7823102839
C      0.5542795067    -2.3867691012    -0.1794615011
H     -0.4441401074    -0.4851132011     0.1249376533
C     -0.4576660147    -0.9090466072    -1.9957193528
C      2.0169499696    -1.8707967181    -0.1714695484
H      0.4822043805    -3.2305718545    -0.8972349778
H      0.3415393159    -2.8211707311     0.8194852443
C      2.2464054506    -0.8731412560     0.9901509454
H      2.2084123872    -1.3496200563    -1.1296393616
C      2.9776905444    -3.0738926034    -0.0911297958
C      3.6671266149    -0.2673060298     1.1302352260
H      2.0171172167    -1.4067200795     1.9367314580
H      1.5047151936    -0.0566112386     0.9231187773
C      4.2073993767     0.5137359982    -0.1047638119
H      4.3607419493    -1.1219422245     1.2572399539
C      3.7594406306     0.5602682067     2.4281089970
C      3.7907962119     1.9917616201    -0.3204343866
H      3.9767277817    -0.0511507041    -1.0300869852
H      5.3126159627     0.5049655363    -0.0234509689
C     -3.2770253505     2.6579511196    -0.9576649339
H     -5.3853702323     2.4395080853    -0.4947634327
H     -4.7056859074     1.0889581785    -1.4013617880
H     -3.4736971375     3.2132291864    -1.8911980510
H     -2.3731020855     2.0470937366    -1.1231603094
H     -3.0371356897     3.4006186200    -0.1773054819
C      4.6588603247     2.6011407520    -1.4411772483
H      4.0099176843     2.5505527859     0.6107203923
C      2.3002760107     2.1873208581    -0.6533407282
H      5.7352375728     2.5226510744    -1.2065736417
H      4.4210881717     3.6688709549    -1.5946275613
H      4.4857008856     2.0780859320    -2.4006597143
H     -5.2988830440     0.4184896331     0.8604346183
C     -4.2571202835     1.9277267359     1.9713780289
H     -5.0994334187     2.6425583290     2.0004091002
H     -3.3205474768     2.5131631628     1.9595369868
H     -4.2727389792     1.3488607977     2.9118466919
H     -3.1847239570    -0.6111992742    -1.3294606521
C     -4.4592061031    -1.9820680584    -0.2624961582
H     -4.4435020277    -2.7669252189    -1.0394050538
H     -5.3811768484    -1.3930208408    -0.4033117240
H     -4.5302305342    -2.4842321575     0.7210420560
H     -1.2306509871    -0.1633165375    -2.2483971318
H     -0.5842983049    -1.7700357977    -2.6788524677
H      0.5211640555    -0.4486470745    -2.2147051599
H      2.8450364861    -3.6188820945     0.8628313296
H      4.0354174444    -2.7683450560    -0.1552205358
H      2.7859949557    -3.7855770292    -0.9135649158
H      3.0512822681     1.4076732598     2.4228911775
H      4.7735423919     0.9752564474     2.5717930452
H      3.5230197949    -0.0646356994     3.3073156266
H      2.0181100332     1.5986486936    -1.5458414987
H      2.0848265522     3.2493166309    -0.8718709798
H      1.6410825865     1.8821553203     0.1754092630
