62
pp config_1200 from config_1200.mcos (coord_rad bohr -> angstrom)
C     -4.6998262705    -1.9830747100    -0.3429954740
C     -5.2900218917    -0.5999897758     0.0199196109
C     -4.3757683543     0.5585471325    -0.4510586064
C     -2.9779682846     0.6763354358     0.2062244016
H     -4.9122583576     1.5162517213    -0.2871997261
H     -4.2447415625     0.4696606349    -1.5494033834
C     -2.1668466296     1.7847652677    -0.5083283999
C     -0.6467482654     1.8402636333    -0.2058652180
H     -2.6223779566     2.7639452028    -0.2512495294
H     -2.2916244016     1.6733218672    -1.6054618498
C      0.1001052810     0.6486437943    -0.8756528875
H     -0.5079938473     1.7756236408     0.8907695325
C     -0.0922416005     3.2040198450    -0.6684184554
C      1.3145160508     0.0342473392    -0.1218489446
H      0.4317749969     0.9678074910    -1.8838190056
H     -0.6174092790    -0.1769378370    -1.0456246930
C      2.4644311613     1.0452655634     0.0990631378
H      1.6933680884    -0.7670493517    -0.7884278949
C      0.8816509093    -0.6403678499     1.1948352244
C      3.8303204289     0.4578253084     0.5440422817
H      2.1421483187     1.7858593093     0.8583366961
H      2.6268764652     1.6197672877    -0.8360520514
C      4.4816502576    -0.3727716955    -0.5880769830
H      3.6541959303    -0.2055774838     1.4129522115
C      4.7533807408     1.6030278873     1.0050458864
C      5.7695661758    -1.1528138413    -0.2275129651
H      4.7061297264     0.3168762316    -1.4281392345
H      3.7480132418    -1.1044110341    -0.9823206560
C     -5.4617129911    -3.1791936403     0.2530464433
H     -3.6490160316    -2.0324946489    -0.0011770465
H     -4.6651030228    -2.0714695165    -1.4477525129
H     -4.9579419442    -4.1312150435     0.0107835542
H     -6.4941912335    -3.2472751944    -0.1295822298
H     -5.5184475274    -3.1031094688     1.3541090935
C      5.5141930308    -2.2472384296     0.8253211288
H      6.5074719213    -0.4395140558     0.1896361960
C      6.3840936511    -1.7674015059    -1.5000641213
H      4.7759855964    -2.9814912410     0.4513971780
H      5.1258106939    -1.8337419132     1.7718446090
H      6.4439403734    -2.7959206117     1.0598626377
H     -5.3806332609    -0.5518203045     1.1244188678
C     -6.7001792128    -0.4123680819    -0.5749481287
H     -7.4079953336    -1.1790136962    -0.2169122805
H     -6.6687787297    -0.4747363264    -1.6792134237
H     -7.1151706690     0.5752609267    -0.3062714650
H     -2.4445673613    -0.2845923854     0.0652400058
C     -3.0873845900     0.9504415569     1.7182988779
H     -3.6143707109     0.1380788128     2.2474581479
H     -3.6458336027     1.8880903082     1.8998372644
H     -2.0950141365     1.0550582396     2.1892713628
H     -0.2385499461     3.3293226599    -1.7572616066
H      0.9867107146     3.3044652306    -0.4658588398
H     -0.6115843966     4.0363588237    -0.1602869696
H      0.5231439588     0.1016487960     1.9307968524
H      1.7144682414    -1.1914542885     1.6638936514
H      0.0646714102    -1.3631583888     1.0189759855
H      4.2805094106     2.1912831655     1.8112468124
H      4.9677946165     2.2926412871     0.1668333110
H      5.7198764209     1.2321262409     1.3872028259
H      6.6076320754    -0.9919097558    -2.2540614315
H      5.6878213469    -2.4933693809    -1.9606394978
H      7.3240021811    -2.3021653527    -1.2743123206
