62
pp config_90460 from config_90460.mcos (coord_rad bohr -> angstrom)
C      3.1664474896     2.8448257556    -0.6755059058
C      3.2239153330     1.6446168025     0.3034763821
C      3.8887782353     0.4107818667    -0.3581458893
C      3.8098273408    -0.9369572521     0.4174318464
H      4.9549144258     0.6720520745    -0.5195160065
H      3.4645543228     0.2520517009    -1.3680340306
C      2.6015698150    -1.8153274331     0.0045998723
C      1.1739818456    -1.3049337672     0.3220700891
H      2.7146535277    -2.8103353185     0.4853000158
H      2.6772815723    -1.9955488174    -1.0872844177
C      0.1466675206    -2.2673173295    -0.3257105476
H      1.0521964395    -0.3049320242    -0.1365701087
C      0.9446491529    -1.1784027935     1.8396195300
C     -1.3488755253    -1.8630565916    -0.2681499702
H      0.2591234693    -3.2590985575     0.1602077036
H      0.4223039713    -2.4193292578    -1.3899641506
C     -1.6265607741    -0.6069353468    -1.1286247685
H     -1.6043273992    -1.6382169428     0.7852489644
C     -2.2159346330    -3.0560503705    -0.7172497216
C     -3.0435043993     0.0159543760    -1.0254669265
H     -1.4346405949    -0.8770870338    -2.1876799742
H     -0.8911384037     0.1848789782    -0.8813206479
C     -3.2842678001     0.6373596196     0.3714387928
H     -3.7870903059    -0.7879111250    -1.1874638444
C     -3.2263030227     1.0581284619    -2.1468026444
C     -4.7134343143     1.1551219577     0.6663474529
H     -2.5682966519     1.4757349899     0.4980572155
H     -3.0283803905    -0.1028977878     1.1560265090
C      2.2204515946     2.6660273320    -1.8737180063
H      4.1934111547     3.0589282065    -1.0352516088
H      2.8532363803     3.7415721767    -0.1061891977
H      1.1888391436     2.4597832443    -1.5359153448
H      2.5289514519     1.8345060545    -2.5298239125
H      2.1908057049     3.5787466257    -2.4943930692
C     -5.7561790947     0.0219309791     0.6677175278
H     -4.9943484599     1.8804282060    -0.1225578465
C     -4.7330926994     1.9021968257     2.0140548147
H     -5.8077222233    -0.4993155837    -0.3036087989
H     -6.7657224735     0.4124453008     0.8886951089
H     -5.5105555131    -0.7310067215     1.4401762712
H      2.1807338317     1.3883724117     0.5756396291
C      3.9689212692     2.0603664343     1.5864397443
H      5.0128663091     2.3436836120     1.3540103094
H      4.0026327122     1.2477663629     2.3321883590
H      3.4821926489     2.9294509325     2.0638573202
H      3.7359183501    -0.7220124547     1.5009279899
C      5.1062530967    -1.7466148198     0.2007849017
H      5.9926696102    -1.1753252442     0.5270441175
H      5.2430757709    -1.9920214776    -0.8693542210
H      5.0862165972    -2.6981799815     0.7614209993
H     -0.0605960017    -0.7880291888     2.0740671742
H      1.6751398101    -0.4982420174     2.3091673785
H      1.0437268703    -2.1661528052     2.3283939211
H     -2.0102508329    -3.9485927900    -0.1000278950
H     -2.0026027190    -3.3188486725    -1.7706888365
H     -3.2951071971    -2.8401765260    -0.6394943252
H     -2.5120032024     1.8937720273    -2.0231783049
H     -4.2430210470     1.4867683070    -2.1558087122
H     -3.0469007874     0.6066880012    -3.1386689547
H     -5.7358482885     2.3112742521     2.2320259034
H     -4.0156050760     2.7418576578     2.0194406260
H     -4.4611490894     1.2222109635     2.8432592480
