62
pp config_29980 from config_29980.mcos (coord_rad bohr -> angstrom)
C      5.5121515298    -0.2933096082     0.1239606129
C      4.6002961419     0.6467761559     0.9477278383
C      3.1040858446     0.4577379720     0.5897113252
C      2.6608456300     0.8846524996    -0.8304860613
H      2.4911780525     1.0281288845     1.3177938155
H      2.8515655000    -0.6091984881     0.7542482339
C      1.1948179142     0.4624798187    -1.1114063274
C      0.9176516120    -1.0535597106    -1.2539059364
H      0.8573289383     0.9539450501    -2.0472700862
H      0.5624597048     0.8841915938    -0.3044096027
C     -0.6043539996    -1.3442282265    -1.3157431241
H      1.3324293086    -1.5779712117    -0.3715265161
C      1.6001113716    -1.6342294003    -2.5085264610
C     -1.4277258820    -1.0846788551    -0.0295841182
H     -0.7480352160    -2.4063287712    -1.6043203941
H     -1.0358556979    -0.7449817946    -2.1443449193
C     -2.9382819321    -1.1827580174    -0.3641287260
H     -1.2406324279    -0.0454747710     0.3087278699
C     -1.0125602725    -2.0355437619     1.1080015575
C     -3.9172467279    -0.8233722799     0.7931546488
H     -3.1605741968    -2.2080172971    -0.7252743210
H     -3.1279265662    -0.5141495296    -1.2252641942
C     -5.0928783926     0.0563059696     0.2993165843
H     -3.3523527537    -0.2479992010     1.5538208002
C     -4.4815369788    -2.0832145230     1.4813070364
C     -4.7437898803     1.4977831172    -0.1390134886
H     -5.8577593785     0.1174317457     1.1015533126
H     -5.5826007512    -0.4680163475    -0.5471301153
C      7.0179814240    -0.0205992355     0.2807684634
H      5.2511918747    -0.2087472297    -0.9476155799
H      5.2875088958    -1.3405437214     0.4105634103
H      7.2611452295     1.0230976833     0.0107239969
H      7.6115525948    -0.6809848913    -0.3752919933
H      7.3652256311    -0.1865397075     1.3147045632
C     -5.9540716809     2.1482023512    -0.8372421155
H     -3.9177191784     1.4496591000    -0.8774028152
C     -4.2778677001     2.3675917637     1.0433877436
H     -6.8131232922     2.2226097002    -0.1440828003
H     -6.2788540000     1.5577867809    -1.7121311547
H     -5.7160299752     3.1691157137    -1.1850520337
H      4.8915398007     1.6905852534     0.7111434779
C      4.7948897352     0.4373179481     2.4629501919
H      5.8370375564     0.6170668001     2.7771667070
H      4.5323781173    -0.5985501914     2.7497570517
H      4.1493778167     1.1200523239     3.0433940978
H      3.3114180890     0.3852510932    -1.5740463483
C      2.8020133742     2.4070402684    -1.0296538363
H      3.8413908874     2.7508601717    -0.8919110010
H      2.1698244773     2.9548592590    -0.3055810915
H      2.4847367276     2.7040844175    -2.0449542864
H      1.4003544380    -2.7164093405    -2.6023313180
H      2.6951122341    -1.4992880819    -2.4879450572
H      1.2196169707    -1.1409136919    -3.4228311900
H      0.0612144419    -1.9434912338     1.3458979239
H     -1.2065966891    -3.0874885120     0.8268580482
H     -1.5692759913    -1.8271549537     2.0377473190
H     -3.6797173435    -2.7469521977     1.8465429167
H     -5.0970871305    -2.6669716246     0.7721436731
H     -5.1206820778    -1.8169238803     2.3423118000
H     -4.0295779842     3.3912459423     0.7096792144
H     -3.3821820468     1.9539310441     1.5370765725
H     -5.0761913746     2.4468286354     1.8052871690
