62
pp config_20310 from config_20310.mcos (coord_rad bohr -> angstrom)
C     -5.7927099214    -0.3868276415    -0.3432850146
C     -4.9995840195    -0.2494871299     0.9831032423
C     -3.4691882180    -0.1165444761     0.7851697579
C     -2.7544726930    -1.2896712185     0.0711117279
H     -2.9997737061     0.0097656775     1.7827994250
H     -3.2683238203     0.8246975695     0.2385810555
C     -1.2551337677    -0.9686376938    -0.1643014526
C     -0.9311890818     0.1124809391    -1.2238088776
H     -0.7337766160    -1.8999291288    -0.4675197735
H     -0.8154375175    -0.6816410164     0.8120871252
C      0.5597548102     0.5354382289    -1.1591122764
H     -1.5529868691     1.0067701133    -1.0248196424
C     -1.2618920812    -0.3837087251    -2.6455970209
C      0.9984908589     1.3573957927     0.0770037126
H      0.7996621571     1.1344807854    -2.0618498537
H      1.1743132101    -0.3840807381    -1.2359273760
C      2.5404449754     1.5113783363     0.1317773475
H      0.6713777107     0.8280836319     0.9929940126
C      0.3448704887     2.7536029890     0.0827809768
C      3.3705782178     0.2352767385     0.4178979943
H      2.7919403844     2.2632008149     0.9087242380
H      2.8762435170     1.9487206439    -0.8315314046
C      4.8720999692     0.5475361982     0.1983366126
H      3.0733478267    -0.5442635582    -0.3101530731
C      3.1054724499    -0.3030769480     1.8366120690
C      5.8556697836    -0.6446013902     0.2731706374
H      5.1799259158     1.3082828628     0.9459272971
H      4.9924165118     1.0286484254    -0.7945310627
C     -5.6624712036     0.7905569903    -1.3257571128
H     -6.8610860790    -0.5283503606    -0.0882346311
H     -5.4840379620    -1.3180254761    -0.8547652448
H     -5.9924470081     1.7424101381    -0.8750028170
H     -6.2822940325     0.6190107675    -2.2228970137
H     -4.6220112807     0.9282093983    -1.6670057725
C      5.5948033897    -1.6859135225    -0.8310134256
H      5.7289161231    -1.1439258700     1.2540915036
C      7.3074543646    -0.1338339040     0.1953930130
H      4.5812649635    -2.1176749631    -0.7668442952
H      6.3155479174    -2.5206444189    -0.7665203796
H      5.7013566418    -1.2262461739    -1.8317177197
H     -5.1881069267    -1.1782881846     1.5571735939
C     -5.5206974486     0.9208835374     1.8413133210
H     -5.0243410204     0.9376687066     2.8277562225
H     -6.6095113498     0.8389170181     2.0119480988
H     -5.3293050828     1.8958510397     1.3587779971
H     -3.2348710764    -1.4487566492    -0.9141169316
C     -2.8782922240    -2.6011733058     0.8718905846
H     -3.9294262197    -2.9030613058     1.0174721648
H     -2.4199202413    -2.4925974428     1.8731238655
H     -2.3622229597    -3.4294153195     0.3548258428
H     -0.6519345630    -1.2712403384    -2.8987309398
H     -1.0490638103     0.3966496652    -3.3977003899
H     -2.3231552827    -0.6668450540    -2.7515118220
H      0.6563759193     3.3326544274     0.9702002712
H     -0.7571484479     2.6982606993     0.0924457091
H      0.6430294177     3.3268547908    -0.8152866420
H      3.4006907183     0.4462270508     2.5951677412
H      3.6739617689    -1.2270959885     2.0384817245
H      2.0388184413    -0.5376370382     1.9943697719
H      7.5238807696     0.5889582669     1.0020318073
H      7.4937033387     0.3736327245    -0.7699190932
H      8.0303567247    -0.9646789638     0.2814915123
