62
pp config_84580 from config_84580.mcos (coord_rad bohr -> angstrom)
C     -2.4802930743    -3.1323573618     0.5387855436
C     -3.0606526370    -1.7034258333     0.6922305360
C     -3.3092478708    -1.0461829773    -0.6893347119
C     -3.7027383210     0.4602217462    -0.6962122854
H     -4.1147679186    -1.6310336441    -1.1792947695
H     -2.4159775947    -1.1727583304    -1.3303898479
C     -2.4954826513     1.4153467294    -0.8746699002
C     -1.4166565512     1.4632654473     0.2355394713
H     -2.8870865968     2.4467855971    -1.0040709776
H     -2.0018228330     1.1561039366    -1.8334709009
C     -0.2628082096     2.3847854757    -0.2358561506
H     -1.0116353906     0.4416148167     0.3716967829
C     -2.0059360858     1.9387360386     1.5765670380
C      0.9883845761     2.4764559109     0.6737548532
H     -0.6756768813     3.4105618320    -0.3431018029
H      0.0381284460     2.0794851939    -1.2553195229
C      1.7526843315     1.1402273154     0.9210727191
H      0.6283645844     2.7919748075     1.6732262378
C      1.9217331796     3.5991378001     0.1778316616
C      2.7978359976     0.6493379697    -0.1164580354
H      1.0219392707     0.3250195147     1.0943680937
H      2.2920056193     1.2588826791     1.8815375522
C      3.6046421514    -0.5150860825     0.5181613269
H      3.5182673880     1.4727270423    -0.2970379258
C      2.1838426396     0.2548564563    -1.4713953562
C      4.8136904416    -1.0374151129    -0.3143336752
H      2.9150019654    -1.3554004816     0.7387154041
H      3.9736346248    -0.1631812884     1.5010982221
C     -1.0579552766    -3.2033072969    -0.0386707467
H     -3.1715454298    -3.7302662372    -0.0894480825
H     -2.4838298598    -3.6158019328     1.5351133900
H     -1.0051964549    -2.8158003949    -1.0702285092
H     -0.6915404498    -4.2447003399    -0.0611990993
H     -0.3515483762    -2.6151754928     0.5745518817
C      6.0525726864    -1.2415536015     0.5801826201
H      5.0680776884    -0.2619722866    -1.0657358276
C      4.4936137468    -2.3438790103    -1.0675587745
H      6.9214539037    -1.5867739095    -0.0087351011
H      5.8528807409    -2.0010179974     1.3590088397
H      6.3376697454    -0.3053524649     1.0913053655
H     -2.3155314983    -1.0999483284     1.2479510178
C     -4.3546755544    -1.7626586170     1.5266945116
H     -4.1684402741    -2.2227697870     2.5134867636
H     -5.1216189426    -2.3705596287     1.0104796984
H     -4.7858988977    -0.7626043879     1.7034982340
H     -4.2043342200     0.7027782774     0.2602498011
C     -4.7192726949     0.7347971291    -1.8251793966
H     -5.6222491244     0.1105209495    -1.7094224667
H     -4.2801330574     0.5059790004    -2.8145547676
H     -5.0339113596     1.7936667604    -1.8365153577
H     -2.8270835937     1.2861596186     1.9173812928
H     -2.4109014298     2.9640030682     1.4789590238
H     -1.2479070276     1.9533442238     2.3780370765
H      2.8067714816     3.7073737264     0.8306130791
H      1.3925373204     4.5681330043     0.1629992623
H      2.2869357590     3.4039046805    -0.8460247817
H      2.9537444182    -0.1219775655    -2.1671873404
H      1.6970288805     1.1110335240    -1.9653677788
H      1.4264835080    -0.5406109736    -1.3453482123
H      5.3476691613    -2.6662448635    -1.6904183629
H      3.6164477020    -2.2379049542    -1.7278891997
H      4.2739100587    -3.1560097160    -0.3504238782
