62
pp config_2080 from config_2080.mcos (coord_rad bohr -> angstrom)
C      4.2805739103     1.8798986300     0.4769622252
C      4.0852183429     0.9932321554    -0.7809490081
C      2.9091365303    -0.0083377783    -0.6646371061
C      2.9697285499    -1.0221691699     0.5036299270
H      2.8493186388    -0.5828175533    -1.6123012095
H      1.9652122303     0.5664600429    -0.6035926367
C      1.7111319408    -1.9275067874     0.5318373317
C      0.3519946375    -1.2539940561     0.8550831383
H      1.8687391075    -2.7266275009     1.2849604793
H      1.6410494780    -2.4465776132    -0.4437716660
C     -0.8307865389    -2.2481676345     0.6412629336
H      0.2100400675    -0.3956017461     0.1702464806
C      0.3375742204    -0.7151293588     2.2999079093
C     -1.5793044124    -2.1895489680    -0.7183518555
H     -1.5762053473    -2.0906072897     1.4439137138
H     -0.4583062911    -3.2816716149     0.7891254858
C     -2.3600175911    -0.8701210398    -0.9463414153
H     -2.3198791522    -3.0136249777    -0.6923560421
C     -0.6610327447    -2.4598241626    -1.9266233314
C     -3.4881796603    -0.5320439545     0.0591214350
H     -2.8150659613    -0.9124367565    -1.9578399586
H     -1.6354330993    -0.0335133406    -0.9807806625
C     -4.1462813110     0.8295757184    -0.2847629276
H     -3.0499940894    -0.4592895239     1.0737551394
C     -4.5723032457    -1.6275509665     0.0923641921
C     -3.2858924777     2.1005064482    -0.0889196401
H     -5.0648260853     0.9451269426     0.3277189907
H     -4.4892786959     0.7872038788    -1.3395643679
C      3.0875536072     2.7746465344     0.8567349049
H      5.1714271549     2.5164085634     0.3103239916
H      4.5343007057     1.2337891422     1.3385208958
H      3.3285402340     3.3907043402     1.7404185572
H      2.1915883516     2.1801770713     1.1051193720
H      2.8121775611     3.4641393620     0.0401230450
C     -3.9936799064     3.3184201590    -0.7142346851
H     -2.3237622042     1.9630509733    -0.6209101991
C     -2.9796072105     2.3668625304     1.3964465986
H     -3.3864930256     4.2349957078    -0.6064101662
H     -4.9669424691     3.5018265407    -0.2211233524
H     -4.1863132951     3.1632140173    -1.7905688840
H      5.0185355280     0.4074466931    -0.8974524797
C      3.9262859031     1.8414927927    -2.0586355209
H      4.7667937349     2.5492330225    -2.1769702888
H      2.9917237016     2.4300337908    -2.0423278865
H      3.8963148101     1.1994629223    -2.9568049598
H      3.0169314923    -0.4585395777     1.4558223688
C      4.2276453600    -1.9102825640     0.4225093992
H      5.1580979643    -1.3205271652     0.4785715391
H      4.2467642542    -2.4764116464    -0.5280376568
H      4.2467950035    -2.6426624545     1.2490901629
H     -0.6261134803    -0.2295508027     2.5325712570
H      1.1357486301     0.0255892737     2.4790081385
H      0.4784947193    -1.5402778886     3.0232865041
H     -1.2514351486    -2.5180643740    -2.8584332623
H     -0.1125690546    -3.4117596008    -1.8133329706
H      0.0862130644    -1.6570068733    -2.0586246682
H     -5.0296844886    -1.7567914966    -0.9068565150
H     -5.3786063081    -1.3615827882     0.7986041717
H     -4.1676809682    -2.6056797640     0.4028126542
H     -3.9170761623     2.5225502148     1.9627944112
H     -2.3583736311     3.2720989687     1.5184946605
H     -2.4393148960     1.5283597111     1.8683507850
