62
pp config_19750 from config_19750.mcos (coord_rad bohr -> angstrom)
C     -2.3957540721     2.6909631214    -0.8481864976
C     -3.6622017884     1.9303750141    -0.3751179811
C     -3.3575525266     0.7338758434     0.5576631359
C     -2.4855323203    -0.4115899122    -0.0181686796
H     -4.3241034624     0.2949773309     0.8826429326
H     -2.8769437789     1.1140853689     1.4807271607
C     -2.2006031243    -1.4285959672     1.1142625641
C     -1.2553929502    -2.6222763544     0.8266654892
H     -3.1789550540    -1.8374797561     1.4453162728
H     -1.7918260824    -0.8784291451     1.9864411931
C      0.2231498118    -2.2086580641     0.5676710347
H     -1.6356466823    -3.1666748617    -0.0584752593
C     -1.3203915525    -3.5980895670     2.0218670778
C      0.6593141015    -1.9689680829    -0.9010569555
H      0.8877599541    -3.0032310631     0.9648667482
H      0.4400088756    -1.3075131135     1.1737561589
C      2.1231654478    -1.4567715117    -0.9593431111
H     -0.0017198588    -1.2070205921    -1.3565683115
C      0.5482071540    -3.2582031162    -1.7389739269
C      2.3942791862    -0.0182227590    -0.4539769756
H      2.4814661544    -1.5224948623    -2.0076684436
H      2.7508890941    -2.1665056558    -0.3812720153
C      3.9216351095     0.1880686413    -0.2959992081
H      1.9278462430     0.0951136034     0.5440270589
C      1.7787006649     1.0291431328    -1.4005352934
C      4.3871198172     1.5146837033     0.3502358282
H      4.3879500920     0.1002189613    -1.2996524143
H      4.3317963029    -0.6489411273     0.3061636694
C     -1.5433184256     3.3274030812     0.2635905673
H     -2.7165676901     3.4811089703    -1.5547086955
H     -1.7623025704     2.0035672755    -1.4399316137
H     -2.1204621966     4.0565930774     0.8579664903
H     -0.6801761447     3.8638388205    -0.1667120195
H     -1.1458622014     2.5711915939     0.9624603385
C      3.9077547230     1.6525757826     1.8071567189
H      3.9645053810     2.3569313553    -0.2325782269
C      5.9225882716     1.6238719277     0.2792557587
H      4.3011649835     0.8239312353     2.4257292050
H      2.8073065015     1.6375636798     1.8878986679
H      4.2601067645     2.6003136962     2.2521638510
H     -4.1481979155     1.5345180532    -1.2888958032
C     -4.6772576582     2.8760820100     0.2979746484
H     -4.2877957065     3.2814615810     1.2488827850
H     -5.6186430852     2.3456553864     0.5261616354
H     -4.9216270016     3.7325540423    -0.3562798597
H     -1.5217486350     0.0209804916    -0.3513527182
C     -3.1634195477    -1.0824068201    -1.2270431943
H     -2.5480839953    -1.8984008548    -1.6415005613
H     -3.3479037400    -0.3654437606    -2.0452176221
H     -4.1390269385    -1.5145320648    -0.9333204711
H     -0.7009401619    -4.4934332026     1.8400240402
H     -2.3557657620    -3.9310483503     2.2150856703
H     -0.9467307359    -3.1159487400     2.9450122113
H     -0.4797807976    -3.6580823173    -1.7621634524
H      1.2041618596    -4.0478483833    -1.3258809921
H      0.8569624522    -3.0775065797    -2.7839949159
H      1.9256700301     2.0583056263    -1.0307564831
H      0.6922831313     0.8798873059    -1.5252477138
H      2.2429995735     0.9608628883    -2.4022592216
H      6.2829962154     1.5620687722    -0.7629380008
H      6.4009807134     0.8055059233     0.8497592380
H      6.2770139441     2.5797387728     0.7046434876
