62
pp config_87270 from config_87270.mcos (coord_rad bohr -> angstrom)
C      3.4564004880     2.3656676658    -0.3585897335
C      4.2802231661     1.2945611714     0.4039099881
C      3.8122507434    -0.1563375794     0.1361173884
C      2.3427454933    -0.4958722143     0.4904519584
H      4.4734969362    -0.8439145207     0.7038212049
H      3.9806812063    -0.3930909710    -0.9330848399
C      2.0286956278    -1.9381684913     0.0207927890
C      0.5479969850    -2.3970981584     0.0632955524
H      2.6313645682    -2.6358871257     0.6391505284
H      2.3950001070    -2.0628157138    -1.0195064921
C     -0.3048196335    -1.6187900390    -0.9681168100
H      0.1497810627    -2.1952911924     1.0767383003
C      0.4813331158    -3.9191089147    -0.1722933317
C     -1.8212711838    -1.9359483683    -1.0173623406
H      0.1196045883    -1.8189058063    -1.9741911277
H     -0.1784604366    -0.5315574888    -0.8029299694
C     -2.5609168534    -1.6619182874     0.3208395748
H     -1.9276851412    -3.0233659240    -1.2027795959
C     -2.4552592942    -1.2190272244    -2.2259854420
C     -2.6575832447    -0.1856665188     0.8057390793
H     -2.0616191360    -2.2590278200     1.1081909586
H     -3.5863498894    -2.0751663279     0.2471718912
C     -3.9120716085     0.5488509071     0.2381712148
H     -1.7583057144     0.3565213023     0.4505402488
C     -2.6484467662    -0.1552265574     2.3489683636
C     -3.6861013236     2.0036943036    -0.2382748639
H     -4.7132725535     0.5438804099     1.0059533286
H     -4.3153914422    -0.0230966536    -0.6171298711
C      3.4615012128     2.2469700523    -1.8930411211
H      3.8444654132     3.3622964144    -0.0712416581
H      2.4101691713     2.3398456923     0.0000422442
H      4.4834395840     2.2934703508    -2.3073231816
H      2.8839718266     3.0699233159    -2.3486898881
H      3.0085460060     1.2997584493    -2.2335674897
C     -4.9702402206     2.5516267454    -0.8909144004
H     -2.8941656613     1.9739323159    -1.0152825759
C     -3.2088444839     2.9470590301     0.8807739454
H     -4.8144018622     3.5695664038    -1.2904964646
H     -5.7933986666     2.6038719704    -0.1534910081
H     -5.3059415721     1.9074768214    -1.7228660486
H      4.1404528220     1.5031517418     1.4832619682
C      5.7892166076     1.4217416019     0.1143021103
H      6.0222178693     1.1891340843    -0.9401457250
H      6.3716269342     0.7246001943     0.7425420481
H      6.1514952684     2.4452478077     0.3201506744
H      1.6879232644     0.2037712588    -0.0649112414
C      2.0678967782    -0.3229462876     1.9959646510
H      1.0232286602    -0.5682079015     2.2527597356
H      2.2510629381     0.7120796923     2.3314324192
H      2.7237794343    -0.9896213200     2.5873702385
H      0.8522789891    -4.1760408262    -1.1826530921
H     -0.5466675289    -4.3095901040    -0.0854666671
H      1.1056524361    -4.4588923883     0.5615965517
H     -1.9622057038    -1.5316641159    -3.1636977000
H     -2.3526066303    -0.1216455966    -2.1497655435
H     -3.5311478973    -1.4504907772    -2.3172732308
H     -3.4990364205    -0.7371194827     2.7495853276
H     -2.7368872771     0.8716044399     2.7430007989
H     -1.7205083308    -0.5966492526     2.7536324355
H     -2.2488002986     2.6214484816     1.3161554310
H     -3.9519650028     2.9926764542     1.6985972797
H     -3.0676555546     3.9734066894     0.4963083631
