62
pp config_44510 from config_44510.mcos (coord_rad bohr -> angstrom)
C      4.5859027442     0.4275363179     1.0959825935
C      3.8980051063     1.2844002028     0.0067762266
C      2.5462696760     0.6722961979    -0.4411815788
C      2.5984923181    -0.6834406955    -1.1852264582
H      2.0313376316     1.3992778518    -1.1026627957
H      1.9058277812     0.5776570226     0.4586716127
C      1.1753059044    -1.2445916309    -1.4375740906
C      0.3342319847    -1.6396112133    -0.1985136723
H      1.2641664967    -2.1398491807    -2.0875614489
H      0.6075694671    -0.4959649050    -2.0281243117
C     -1.0889829676    -2.0506233885    -0.6591094645
H      0.2379070317    -0.7550039891     0.4599995752
C      1.0065830845    -2.7699318529     0.6030067668
C     -2.1541723993    -2.2215842747     0.4653947620
H     -0.9929588866    -3.0007732725    -1.2231033476
H     -1.4571290949    -1.3042433935    -1.3904381076
C     -3.1209753555    -1.0138913071     0.5587915834
H     -1.6282749984    -2.3227063990     1.4343548674
C     -2.9756339972    -3.5101143334     0.2547025751
C     -2.5105249442     0.3549164869     0.9407977725
H     -3.9142997661    -1.2476875928     1.2994616530
H     -3.6329369604    -0.9296158730    -0.4200267053
C     -3.5510264355     1.4953593010     0.7960255970
H     -1.6659693858     0.5691148600     0.2566942970
C     -1.9664548998     0.3467936060     2.3829599352
C     -4.0306982215     1.8408713083    -0.6337490218
H     -3.1268015453     2.4177351757     1.2440697322
H     -4.4340284098     1.2357789523     1.4166534056
C      6.0183293422     0.8671541844     1.4441501897
H      4.6143413954    -0.6281745748     0.7667807705
H      3.9548238422     0.4452571763     2.0074146799
H      6.4754461307     0.1834232574     2.1805989040
H      6.0488253968     1.8822305710     1.8753248541
H      6.6616305164     0.8671149856     0.5455226291
C     -5.1955769696     2.8480071137    -0.5683115642
H     -4.4141774592     0.9173703508    -1.1108922119
C     -2.8926377366     2.3952118721    -1.5105769755
H     -4.8694136808     3.7954387719    -0.0991919320
H     -6.0376393425     2.4513994597     0.0261132700
H     -5.5753731639     3.0879750362    -1.5774261146
H      4.5767479730     1.3229994789    -0.8695145742
C      3.6695306569     2.7316051691     0.4872261970
H      4.6132660574     3.2322282717     0.7627381095
H      3.0098952695     2.7477559251     1.3753460191
H      3.1877275394     3.3386865637    -0.2995670152
H      3.1483622886    -1.4128999013    -0.5600802442
C      3.3428066205    -0.5619992466    -2.5300041541
H      3.3646794283    -1.5317152812    -3.0581983417
H      4.3871130359    -0.2306533302    -2.3998474747
H      2.8397139990     0.1695411801    -3.1903349100
H      1.1537820751    -3.6604821073    -0.0368287178
H      0.3953409947    -3.0775111984     1.4695197895
H      1.9938245334    -2.4687973541     0.9933040803
H     -2.3220428497    -4.3990743895     0.2194695665
H     -3.5339893000    -3.4695155055    -0.6993974792
H     -3.7107523924    -3.6575779630     1.0660747654
H     -1.5224436901     1.3236390725     2.6456298253
H     -1.1890802005    -0.4218095857     2.5304220482
H     -2.7797612128     0.1421290046     3.1046818651
H     -3.2582755037     2.6474250676    -2.5221990833
H     -2.0667870960     1.6729478009    -1.6278662303
H     -2.4728350124     3.3167470568    -1.0649885869
