62
pp config_12740 from config_12740.mcos (coord_rad bohr -> angstrom)
C     -5.6574677532    -0.2489394919    -0.6691556006
C     -5.0442557243     0.1592104275     0.6915543597
C     -3.4986131454     0.2535547595     0.6215097278
C     -2.7231083834    -1.0674294770     0.3999728971
H     -3.1281496090     0.7063367692     1.5643495847
H     -3.2421544113     0.9754013938    -0.1799228512
C     -1.2146881906    -0.8013982504     0.1545176525
C     -0.8313095804    -0.0894717565    -1.1651143782
H     -0.6764800387    -1.7715118857     0.1801090918
H     -0.8304296722    -0.2208374646     1.0173115640
C      0.6768914856     0.2729956612    -1.1915376346
H     -1.4126842265     0.8488495016    -1.2483211587
C     -1.1667422780    -0.9601969583    -2.3924942050
C      1.1578052955     1.3580068608    -0.1980432876
H      0.9398485021     0.6149762200    -2.2139560008
H      1.2501590025    -0.6618372753    -1.0294506918
C      2.7033669527     1.4836473113    -0.2092477160
H      0.8428378520     1.0723847374     0.8241295636
C      0.5315730087     2.7302716383    -0.5159617818
C      3.5175060530     0.2871924867     0.3432800380
H      2.9863830109     2.3861032356     0.3718198116
H      3.0243962432     1.6830932965    -1.2529015236
C      5.0197169348     0.5135923220     0.0393616807
H      3.1954390680    -0.6288446968    -0.1887976592
C      3.2684301738     0.0832522510     1.8496733137
C      5.9856402197    -0.6503548802     0.3656740726
H      5.3524433645     1.4160132767     0.5936934226
H      5.1303308806     0.7583695287    -1.0375158187
C     -7.1636139949    -0.5584382184    -0.6234295658
H     -5.1287541078    -1.1403917810    -1.0556978564
H     -5.4618753833     0.5617701378    -1.3997668029
H     -7.3812443754    -1.3573928907     0.1084577078
H     -7.5288498297    -0.9002314811    -1.6076155679
H     -7.7612352550     0.3245263685    -0.3399024145
C      5.6876851945    -1.9078691101    -0.4718723558
H      5.8694275946    -0.9139587947     1.4354881116
C      7.4435468961    -0.1986055885     0.1535345132
H      4.6690973992    -2.2945191314    -0.2965832864
H      6.3966802505    -2.7204675698    -0.2322039781
H      5.7820560446    -1.6870857081    -1.5518800067
H     -5.3179216089    -0.6205035011     1.4314511774
C     -5.6173869483     1.5011728247     1.1894811172
H     -6.7135012168     1.4665588847     1.3097486200
H     -5.3841144198     2.3130816353     0.4749422092
H     -5.1835940272     1.7790886731     2.1663645053
H     -3.1325875294    -1.5770298110    -0.4933778166
C     -2.8840399952    -2.0218334659     1.6001860619
H     -3.9392685591    -2.2873209599     1.7832371016
H     -2.4912733841    -1.5559571079     2.5236342861
H     -2.3280316248    -2.9617813007     1.4353650294
H     -0.8865072478    -0.4470266777    -3.3295038990
H     -2.2422824495    -1.1987344284    -2.4532543528
H     -0.6133494661    -1.9174790157    -2.3544664504
H     -0.5703651366     2.7079854357    -0.4637679652
H      0.8115034065     3.0604932627    -1.5341868189
H      0.8824546645     3.4991331223     0.1951037120
H      3.5890026929     0.9764896449     2.4183965582
H      3.8251580796    -0.7837533432     2.2448163889
H      2.2009870299    -0.0891728458     2.0699317200
H      7.6195330693     0.0752749521    -0.9038466847
H      8.1548342460    -1.0027995611     0.4136254136
H      7.6864638517     0.6825510813     0.7736105716
