62
pp config_96920 from config_96920.mcos (coord_rad bohr -> angstrom)
C      5.5808769232     0.6088242379     0.2220247124
C      4.3894652757     1.6017657324     0.2574966752
C      3.0077497595     0.9281010985     0.0665529587
C      2.7909564219     0.1421351858    -1.2493960094
H      2.2275811193     1.7152562065     0.1249821475
H      2.8231428705     0.2593725898     0.9289754516
C      1.4034313013    -0.5513944696    -1.2656222616
C      1.1899559290    -1.7211579004    -0.2747664226
H      1.2127559075    -0.9398522429    -2.2874236287
H      0.6367132823     0.2302626209    -1.0923000430
C     -0.2953488720    -2.1645371447    -0.2396657877
H      1.4742644193    -1.3865151762     0.7416786527
C      2.0748435743    -2.9306016615    -0.6364694865
C     -1.3194145160    -1.1687842376     0.3604413385
H     -0.3657796235    -3.1128855706     0.3328507874
H     -0.6044212818    -2.4136551250    -1.2762463380
C     -2.7516395016    -1.7054520951     0.1125649005
H     -1.2144423191    -0.2024828851    -0.1695355541
C     -1.0599452653    -0.9279973143     1.8595779270
C     -3.9334525010    -0.7641499922     0.4605591971
H     -2.8687047630    -2.6453252503     0.6914953994
H     -2.8449567458    -1.9942785535    -0.9550111560
C     -3.9649809577     0.4663772013    -0.4774830672
H     -3.8001357093    -0.4115039180     1.5015717961
C     -5.2534871841    -1.5580605523     0.3988620031
C     -5.0152251936     1.5590157056    -0.1603979127
H     -4.1328151430     0.1008920130    -1.5118929368
H     -2.9688482906     0.9527103430    -0.4835551264
C      5.5670986404    -0.4916776573     1.2977508713
H      6.5158495297     1.1948981316     0.3161618146
H      5.6270251209     0.1349091403    -0.7766088774
H      5.5558324603    -0.0713572613     2.3181909115
H      6.4645252800    -1.1289428009     1.2141778731
H      4.6866315137    -1.1498619195     1.2003966812
C     -4.7706596337     2.2255496693     1.2060781384
H     -6.0174862782     1.0876297284    -0.1389076913
C     -5.0233660070     2.6187020171    -1.2792666489
H     -5.5239940259     3.0086203679     1.4055564702
H     -3.7735228708     2.7040812809     1.2322564709
H     -4.8166888212     1.5017385779     2.0378251625
H      4.5436282551     2.3041716069    -0.5855003828
C      4.3871301046     2.4450882988     1.5483354438
H      3.6009901304     3.2199694945     1.5115742022
H      5.3568616963     2.9541038160     1.6960407804
H      4.1956291775     1.8225857301     2.4404491564
H      3.5720510682    -0.6391982286    -1.3261890371
C      2.9179449207     1.0557989658    -2.4847193289
H      2.7514508101     0.4855638508    -3.4157822273
H      3.9139698606     1.5248176177    -2.5552409017
H      2.1674966529     1.8682273398    -2.4495352886
H      3.1487696702    -2.6776811829    -0.6301791837
H      1.8257420053    -3.3069520827    -1.6466128861
H      1.9245733746    -3.7595188271     0.0779434494
H     -1.7768807684    -0.2083026883     2.2903882944
H     -0.0484042587    -0.5269802413     2.0429417079
H     -1.1538099427    -1.8748701508     2.4241273821
H     -6.1213245727    -0.9478319027     0.7020454850
H     -5.2166335947    -2.4379454790     1.0654264242
H     -5.4431152057    -1.9220738402    -0.6286178897
H     -5.7899530230     3.3922369747    -1.0939595124
H     -5.2320446332     2.1633004618    -2.2636188681
H     -4.0431216452     3.1273969107    -1.3450824154
