33
MNEXVZFQQPKDHC-UHFFFAOYSA-N optimised
O        3.435468      1.138354     -2.497202
S        3.882295     -0.219696     -2.286842
O        3.323327     -1.374133     -2.935183
O        5.484244     -0.300207     -2.528833
C        3.882932     -0.539191     -0.410389
F        4.329009     -1.792625     -0.198393
F        4.780535      0.340202      0.121182
C        2.526089     -0.301061      0.365603
F        2.255145      1.026391      0.318877
F        2.775722     -0.655153      1.658271
C        1.280395     -1.102396     -0.157562
F        1.670447     -2.389408     -0.373786
F        0.892256     -0.561143     -1.341488
C        0.007996     -1.219169      0.783943
F        0.381389     -1.924390      1.886274
F       -0.892205     -1.967281      0.090264
C       -0.742479      0.056295      1.339308
F       -1.716974     -0.421464      2.160387
F        0.148843      0.750347      2.101623
C       -1.408337      1.126299      0.382815
F       -0.419845      1.683060     -0.366471
F       -1.907298      2.089934      1.208986
C       -2.556593      0.750266     -0.636625
F       -2.848570      1.912836     -1.284109
F       -2.046919     -0.124106     -1.545031
C       -3.929300      0.131679     -0.154650
F       -3.707855     -1.105828      0.359848
F       -4.676293      0.001715     -1.286909
C       -4.808410      0.931599      0.874030
F       -4.983927      2.204963      0.474324
F       -6.013956      0.332650      0.953329
F       -4.252313      0.926159      2.099604
H        5.855179      0.594503     -2.371640
