98
polyethersulfone conf_8820 from conf_8820.cosmo (coord_rad bohr -> angstrom)
O    -13.7339138750    -6.3972823747     2.9461796136
H    -11.4737986290    -7.3980538270     2.2080078856
C    -12.9844424229    -5.8790920534     1.9321545681
C    -11.7635583930    -6.5126855986     1.6350152141
C    -13.3794503293    -4.7473078148     1.1933441398
C    -10.9493014692    -6.0361597483     0.6108295867
H    -14.3346892782    -4.2577563081     1.4113000923
H     -6.1286141645    -2.8230613083     0.7921047359
H    -10.0084793634    -6.5415185943     0.3681217717
H     -7.6616967421    -4.5288563105    -0.2161027152
C     -7.0964832699    -2.5237785183     0.3800348968
C    -12.5703819531    -4.2601209956     0.1670188087
C     -7.9513103244    -3.4733121267    -0.1785969323
C    -11.3582899420    -4.9042158415    -0.1073589655
C     -5.8057670687     3.2701080310     1.2469932202
C     -6.0969166086     1.9541519847     1.6026863883
C     -5.8054700193     3.6119089590    -0.1100912762
H     -5.5966877894     4.0214269277     2.0157758412
C     -6.3969254688     0.9991877245     0.6201642038
C     -6.0928149832     2.6725150701    -1.1059574509
H     -6.1160281484     1.6550817674     2.6544571102
C     -6.3829663166     1.3583673028    -0.7367381197
O     -6.5890793185    -0.3015327224     1.0526752304
C     -7.4514854541    -1.1675279493     0.3990818338
H     -6.0946176717     2.9628754348    -2.1618713030
H     -6.5997726058     0.6156841285    -1.5081381963
H    -12.8840069544    -3.3901059860    -0.4199909600
C     -9.1747824127    -3.0442093922    -0.7053881575
S    -10.3017056278    -4.2752145768    -1.4467523305
C     -8.6857566652    -0.7567394771    -0.1271956351
C     -9.5504142108    -1.6971169053    -0.6892962995
O    -11.1906078588    -3.5302268011    -2.4128663617
O     -9.4476061518    -5.4251947312    -1.9227690893
H     -8.9755459443     0.2964656851    -0.1011872755
H    -10.5091565704    -1.3826671462    -1.1147291979
C     -3.6328395565     5.4414818964    -0.8364539703
C     -2.8153033184     5.7610610143     0.2533431205
H     -3.2497972794     5.9584185351     1.2388774707
C     -3.1068530628     5.2325139346    -2.1155933317
C     -1.4367367824     5.8554757690     0.0605021900
H     -3.7647887884     5.0067466349    -2.9613008029
C     -1.7265834073     5.3232425354    -2.2931896955
C     -0.8894002156     5.6335854600    -1.2124767067
H     -0.7912575411     6.1319904765     0.8977137758
O      0.4578701428     5.8057669607    -1.4882046934
H     -1.2823049754     5.1709133533    -3.2807062737
H      2.7167896830     7.0112663895    -1.2474224820
C      1.4367905389     5.4044648380    -0.5959112183
C      2.6393399498     6.1262789922    -0.6094735725
C      1.3081342661     4.2665201056     0.2164355251
C      3.7089546394     5.7400884596     0.1964536948
H      0.3800187973     3.6902409299     0.2205533394
H      8.6997551868     3.0324570099    -0.9763382848
H      4.6377443615     6.3203060543     0.2042261713
H      7.2635569456     4.5885975718     0.3638837920
C      7.8564312835     2.6476459602    -0.3960729719
C      2.3726471085     3.8691343334     1.0267428399
C      7.0556110242     3.5136208064     0.3472318451
C      3.5601292826     4.6074763360     1.0056195235
O      8.3956147976     0.4880818202    -1.2236068837
C      7.6100797408     1.2672115343    -0.3904118092
H      2.2776381127     2.9909732037     1.6744053551
C      5.9953872275     2.9768197124     1.0857704789
S      4.9466808199     4.0955412265     2.0749029129
C      6.5360365901     0.7478203950     0.3489131097
C      5.7273420660     1.6037558254     1.0976819902
O      4.3603491443     3.2780084252     3.1991811330
O      5.7655534547     5.3286288138     2.3662114641
H      6.3283927669    -0.3248178138     0.3439137298
H      4.8970226117     1.2026192817     1.6884565101
S     -5.4379694678     5.3322965040    -0.5917821714
O     -6.0821412703     5.5656395180    -1.9358196518
O     -5.7808235704     6.2080041569     0.5879399461
C      8.9271987003    -1.7069831610    -1.9534857829
C      9.3673966567    -3.0081419123    -1.7156579843
H      9.4813664019    -3.7178829606    -2.5418497510
C      9.6414816760    -3.3913567867    -0.3980535023
C      9.4805897021    -2.5076679689     0.6742777762
H      9.6929326653    -2.8303510324     1.6990465537
C      9.0396984615    -1.2077354355     0.4228724870
C      8.7505305488    -0.8083411691    -0.8912896934
H      8.9203863739    -0.5079422666     1.2532789650
H      8.6939583661    -1.3772071768    -2.9697747715
S     10.2061835202    -5.0953390206    -0.0699348652
O      9.7209605761    -5.9526976499    -1.2127585508
O      9.8250659441    -5.4241771204     1.3524233766
H     12.2391485266    -4.6649368764     1.9720978670
C     12.7590718692    -4.8244845919     1.0210057028
C     14.1566897376    -4.8096464840     0.9526226015
H     14.7401009673    -4.6235435113     1.8605494797
C     14.8024878156    -5.0354960842    -0.2693298642
H     15.8975686023    -5.0245537905    -0.3162006859
C     14.0595188238    -5.2856315660    -1.4298664907
H     14.5672052838    -5.4712936615    -2.3823037045
C     12.6612244283    -5.3037485085    -1.3778979082
H     12.0662766969    -5.5141482852    -2.2735496694
C     12.0340341110    -5.0717209972    -0.1492677731
H    -14.5450194959    -5.8653543832     3.0626308272
