98
polyethersulfone conf_5460 from conf_5460.cosmo (coord_rad bohr -> angstrom)
O     13.7735266027    -1.1032721627     3.0792647959
H     12.4571274079     0.6622082737     4.4231725089
C     13.1719995384    -0.0237232304     2.5036890955
C     12.4742102997     0.8602446926     3.3476942475
C     13.2162629958     0.2254519049     1.1185300719
C     11.8386629792     1.9840955478     2.8260697096
H     13.7684069659    -0.4514915819     0.4581119229
H      7.5557832011     1.9502968815    -2.2701642132
H     11.3124249065     2.6815901593     3.4864881362
H      9.8880800288     2.5955491295    -1.6881946803
C      7.7825710518     2.3178023452    -1.2663150301
C     12.5809673316     1.3465966816     0.5850803743
C      9.0902406528     2.6822031381    -0.9433209714
C     11.8903519042     2.2096500351     1.4435385904
C      3.3582014837     0.1636545917    -2.8331658464
C      3.8568429763     1.2383477128    -2.0990903948
C      4.0647656255    -1.0442690593    -2.8138401274
H      2.4411447626     0.2684791552    -3.4223433721
C      5.0495829919     1.1145441064    -1.3712017444
C      5.2507187596    -1.1913103695    -2.0865936452
H      3.3355433978     2.1998010704    -2.0994266022
C      5.7404023307    -0.1080735269    -1.3555510680
O      5.4278716192     2.2045146512    -0.6079131054
C      6.7595120307     2.4601353155    -0.3167330589
H      5.7925957477    -2.1432729799    -2.0925811536
H      6.6613521460    -0.2172842629    -0.7781907495
H     12.6299128583     1.5520778914    -0.4896613524
C      9.3591880120     3.1862050249     0.3338902494
S     11.0669504710     3.6771396255     0.7556792019
C      7.0476550269     2.9763030427     0.9540958243
C      8.3490094893     3.3522000903     1.2870322750
O     11.7601099359     4.0163498203    -0.5417124518
O     10.9688500539     4.6994757751     1.8617603942
H      6.2334897160     3.0968217715     1.6742087514
H      8.5730595162     3.7729944787     2.2728679130
C      2.3421687282    -3.4172242278    -2.6880782281
C      2.8788741303    -4.4855575970    -1.9616011445
H      3.9398405468    -4.7430908756    -2.0453386042
C      0.9832226989    -3.0905445663    -2.6214978721
C      2.0327144988    -5.2199106418    -1.1317097241
H      0.5751100631    -2.2750702215    -3.2281277950
C      0.1454733361    -3.8380336181    -1.7930196869
C      0.6700244899    -4.9022873737    -1.0427494195
H      2.4181522343    -6.0642248448    -0.5532825876
O     -0.1207082497    -5.7417317493    -0.2758723725
H     -0.9220169565    -3.6084103433    -1.7546277441
H     -2.2430412223    -7.1377747069     0.1284837473
C     -1.2149385628    -5.2669995781     0.4270444467
C     -2.2891302443    -6.1518123079     0.5994381007
C     -1.2383301474    -4.0043942099     1.0404030655
C     -3.3881619772    -5.7896870612     1.3769918221
H     -0.3892691840    -3.3245068592     0.9380807948
H     -8.6662026987    -3.8751053287    -0.1337095621
H     -4.2191201418    -6.4867547935     1.5274034200
H     -7.0368982514    -5.0468957901     1.3661977719
C     -7.8906687069    -3.3103233136     0.3914397034
C     -2.3360443678    -3.6271377393     1.8148584475
C     -6.9828400750    -3.9623238755     1.2242539765
C     -3.4019000041    -4.5206774488     1.9660511601
O     -8.7286126836    -1.3620601197    -0.6735602626
C     -7.8438642964    -1.9172565526     0.2344081707
H     -2.3507502456    -2.6527365882     2.3148030408
C     -6.0156349498    -3.1968299843     1.8862303994
S     -4.8307512534    -4.0347886529     2.9907925466
C     -6.8603191286    -1.1667444953     0.8985438151
C     -5.9455729337    -1.8084217846     1.7347192696
O     -4.3413262136    -3.0049787183     3.9789161378
O     -5.4869243895    -5.3068818721     3.4673682501
H     -6.8068358559    -0.0833869322     0.7684702296
H     -5.1846241461    -1.2297726621     2.2692741808
S      3.4362092777    -2.4537380769    -3.7858729549
O      2.5729515681    -1.8851171976    -4.8849399245
O      4.6188551299    -3.3315118127    -4.1131062740
C     -9.4064436439     0.6759037841    -1.6941153868
C     -9.9732101785     1.9487751918    -1.6339550198
H    -10.1467947160     2.5259297346    -2.5482596512
C    -10.3195667015     2.4690364780    -0.3825660386
C    -10.1361255496     1.7376557379     0.7960777856
H    -10.4486505080     2.1480903637     1.7619561189
C     -9.5749006753     0.4625226493     0.7210230480
C     -9.2049251287    -0.0690697342    -0.5238250784
H     -9.4526456753    -0.1291114572     1.6315149108
H     -9.1282022381     0.2368006461    -2.6561967781
S    -11.0640249290     4.1330160781    -0.2879155123
O    -11.9017802589     4.1749512206     0.9662440973
O    -11.6819255359     4.4198824790    -1.6340992811
H     -9.4171009289     5.5943281679    -2.1946799556
C     -9.0697414062     5.8604353868    -1.1901635626
C     -8.0190020032     6.7665051609    -1.0080229114
H     -7.5273687099     7.2065847696    -1.8820762615
C     -7.6030948978     7.1093736448     0.2846278947
H     -6.7806093906     7.8210885430     0.4206033396
C     -8.2372875942     6.5576905323     1.4047549630
H     -7.9163896576     6.8344970335     2.4145880862
C     -9.2896251059     5.6502240058     1.2393124236
H     -9.8064087069     5.2213821910     2.1049632143
C     -9.6881353272     5.3168101919    -0.0592326931
H     14.2147095103    -1.6411843093     2.3932387835
