98
polyethersulfone conf_5180 from conf_5180.cosmo (coord_rad bohr -> angstrom)
O     -9.3479061696     3.7800457653    -5.6349909310
H     -6.8592799477     3.1107997412    -5.4978199887
C     -8.6213808753     3.8395554146    -4.4829975468
C     -7.2745268803     3.4358008695    -4.5396412483
C     -9.1671891507     4.2738757178    -3.2598561282
C     -6.4748796715     3.4764585470    -3.4003158692
H    -10.2117223538     4.5994491778    -3.2127357522
H     -8.0664154579     0.7811653749     2.4731451961
H     -5.4215685630     3.1803389691    -3.4492690576
H     -7.8682931844     2.9993601096     1.3252915696
C     -7.2894170390     0.9491241673     1.7219161302
C     -8.3759548843     4.3162523831    -2.1121386624
C     -7.1808384273     2.1826592405     1.0810105380
C     -7.0394352589     3.9082463316    -2.1922820898
C     -3.3752222447    -2.5924702841     3.3059873309
C     -4.3471449620    -1.6853567021     2.8826126872
C     -3.6484494816    -3.9629708860     3.2361347815
H     -2.4228829903    -2.2321430606     3.7089118060
C     -5.5786011183    -2.1518805178     2.3972025867
C     -4.8761054739    -4.4461309564     2.7704543390
H     -4.1545288953    -0.6126185051     2.9589033559
C     -5.8360970690    -3.5293646418     2.3438250439
O     -6.6189319589    -1.3067195946     2.0499230943
C     -6.3891542568    -0.0867293741     1.4349880472
H     -5.0815989237    -5.5213999143     2.7457805017
H     -6.8081951463    -3.8724182259     1.9787882779
H     -8.7937151597     4.6727866028    -1.1644249649
C     -6.1637122467     2.3571602463     0.1357912971
S     -5.9993258266     3.9710631945    -0.7022966943
C     -5.3806260456     0.1031570408     0.4769931135
C     -5.2616062884     1.3334043311    -0.1712927674
O     -6.5944611031     5.0086818546     0.2185166672
O     -4.5648348240     4.0839529771    -1.1585473467
H     -4.6860593073    -0.7052261348     0.2363445899
H     -4.4685880929     1.4959233065    -0.9090224382
C     -1.3208144020    -5.5266217508     2.3748381253
C     -1.6397897059    -6.6176211978     1.5586057354
H     -2.5163851128    -7.2390193301     1.7700118647
C     -0.1891942732    -4.7381698909     2.1410379098
C     -0.8137998159    -6.9007977006     0.4718839442
H      0.0631581679    -3.9119663932     2.8141882508
C      0.6337351868    -5.0363403524     1.0543285271
C      0.3205528030    -6.1171960891     0.2148816022
H     -1.0302779965    -7.7490340481    -0.1836337105
O      1.1410481781    -6.5265195560    -0.8220419866
H      1.5343525411    -4.4430848550     0.8793731509
H      3.4980422934    -7.0258116072    -1.7365770950
C      1.8746937660    -5.6179875552    -1.5675023501
C      3.1292153630    -6.0389657006    -2.0300875655
C      1.3684404132    -4.3650002226    -1.9477130199
C      3.8857079131    -5.2211827602    -2.8689695606
H      0.3765181020    -4.0471775249    -1.6173721731
H      8.3419554943    -1.6149232070    -1.6950868891
H      4.8588689383    -5.5538155193    -3.2447827966
H      7.0108736801    -3.1561341962    -3.1558270289
C      7.3411999499    -1.3320918169    -2.0336270087
C      2.1180047559    -3.5346477728    -2.7815484941
C      6.6005458153    -2.1892648548    -2.8457871402
C      3.3725044410    -3.9693724674    -3.2238958074
O      7.6651398506     0.7429543259    -0.9290505303
C      6.8257670899    -0.0835586950    -1.6550924763
H      1.7166480615    -2.5672325179    -3.1018007163
C      5.3265846120    -1.7826939187    -3.2597293466
S      4.3490094170    -2.8924442611    -4.3267556146
C      5.5536749967     0.3148549644    -2.0955900123
C      4.7990020294    -0.5379129016    -2.9020699322
O      3.3723473280    -2.0290534446    -5.0867000128
O      5.3236158018    -3.7795199809    -5.0609447932
H      5.1601168723     1.2995420297    -1.8330370611
H      3.8152634997    -0.2256865821    -3.2683584557
S     -2.3876667372    -5.1516125818     3.8059540347
O     -1.5312825880    -4.4383346139     4.8231107538
O     -3.1104067407    -6.4255176033     4.1674960204
C      6.0857409008     1.3957656102     0.8220900565
C      5.6862714806     2.3393884527     1.7689489418
H      4.8593486584     2.1200223088     2.4527691900
C      6.3748139285     3.5548296654     1.8496397695
C      7.4649876987     3.8405458534     1.0211434222
H      8.0081652652     4.7866404004     1.1158986624
C      7.8490984523     2.8919816571     0.0735819071
C      7.1651976204     1.6729804411    -0.0313241368
H      8.6992478048     3.0809787893    -0.5879050822
H      5.5729527388     0.4323200199     0.7683121457
S      5.8612490683     4.7869333418     3.0950737534
O      7.0569314219     5.6656023507     3.3680992442
O      5.1899562820     4.0333238953     4.2166987169
H      2.9558306202     4.5770040117     2.9909246194
C      3.2407120834     5.4693827319     2.4227828268
C      2.2722741004     6.2787956081     1.8183905150
H      1.2139955268     6.0099222189     1.9027654260
C      2.6563985449     7.4266207823     1.1139959790
H      1.8929626393     8.0574833623     0.6442093941
C      4.0078964445     7.7801813392     1.0143765393
H      4.3045100531     8.6835782536     0.4710462262
C      4.9883469223     6.9811197741     1.6130244885
H      6.0483877507     7.2526286287     1.5577784724
C      4.5855914165     5.8359851412     2.3082802200
H    -10.2617810898     4.0807584117    -5.4646597810
