98
polyethersulfone conf_4160 from conf_4160.cosmo (coord_rad bohr -> angstrom)
O     14.9743769670     1.6049065730     1.2126758678
H     15.1959736270    -0.9921929048     0.5104501886
C     14.2257761375     0.9391666075     0.2880314270
C     14.4105496591    -0.4264405964    -0.0016689954
C     13.2257431684     1.6644389631    -0.3859190971
C     13.6140839185    -1.0569726587    -0.9572229173
H     13.1000186069     2.7273536463    -0.1610611976
H      9.0887271923    -4.6989687483    -0.5044278546
H     13.7687204156    -2.1146921635    -1.1964573132
H     11.0847374624    -3.7626639932    -1.7007998245
C      9.0833947816    -3.6686288468    -0.8711475361
C     12.4268197097     1.0455566271    -1.3439914742
C     10.1934249035    -3.1482245002    -1.5363427005
C     12.6232515326    -0.3158717333    -1.6119818593
C      3.7498441512    -2.6530388123     1.6727615152
C      4.6510211869    -3.2293091491     0.7787939227
C      4.2081011541    -1.6438984256     2.5273719947
H      2.7072749798    -2.9865812695     1.7061128193
C      5.9910646497    -2.8162404487     0.7502822702
C      5.5431035483    -1.2261129511     2.5229116068
H      4.3279824451    -4.0229556529     0.0992457326
C      6.4371715194    -1.8160717115     1.6287401346
O      6.8395050122    -3.5041189516    -0.0995548216
C      7.9359687496    -2.8864814643    -0.6808945192
H      5.8891083656    -0.4618603208     3.2269162869
H      7.4872156120    -1.5144295216     1.6355717826
H     11.6616638214     1.6148675791    -1.8823583999
C     10.1417411513    -1.8271104789    -1.9926703269
S     11.5880857062    -1.1317218026    -2.8639190467
C      7.8948222157    -1.5688967735    -1.1632881013
C      9.0015793092    -1.0338741700    -1.8234251054
O     12.3737900304    -2.2994777485    -3.4093743415
O     11.0713063042    -0.0569495638    -3.7894117267
H      6.9898039570    -0.9673324814    -1.0488266938
H      8.9674826099    -0.0145085806    -2.2223691915
C      2.2980691220     0.5571125918     2.8653229361
C      2.9246321088     1.8041850387     2.9730907335
H      3.8456432294     1.9231922336     3.5535311252
C      1.1088222013     0.3908358016     2.1481941929
C      2.3406252037     2.8989413758     2.3381159247
H      0.6317533944    -0.5930547973     2.0848946274
C      0.5330365971     1.4946452071     1.5175054059
C      1.1430678836     2.7549847904     1.6221957823
H      2.7977900927     3.8899764090     2.4090843506
O      0.6774926373     3.8744182168     0.9547846066
H     -0.3911264702     1.3713542573     0.9481342226
H     -1.3796437587     3.3327294689     2.6389827778
C     -0.6747163965     4.0715218962     0.7237725173
C     -1.6581734756     3.7772737199     1.6804394906
C     -1.0318605793     4.6840801856    -0.4856018576
C     -2.9943594893     4.0871215252     1.4251353499
H     -0.2484442248     4.9216400933    -1.2106268083
H     -6.3864092593     2.3838229596    -4.0408439812
H     -3.7630469735     3.8816467441     2.1773033833
H     -5.3313645105     4.3698092859    -2.9352400502
C     -6.3844324280     2.4758686041    -2.9510254661
C     -2.3627090687     5.0059574568    -0.7502286833
C     -5.7959893606     3.5796433774    -2.3360037306
C     -3.3315240914     4.6893423619     0.2080202833
O     -7.4921211471     0.3788768446    -2.8712915593
C     -7.0078873753     1.4793092939    -2.1858097369
H     -2.6406809889     5.5010247113    -1.6865882811
C     -5.8279893126     3.6616953649    -0.9390427677
S     -5.0767375150     5.1090901636    -0.1217597323
C     -7.0217979742     1.5733154262    -0.7848296674
C     -6.4357129041     2.6736412824    -0.1576691440
O     -5.0795511777     6.2375334504    -1.1229560548
O     -5.7562450653     5.2661993821     1.2161099250
H     -7.4904171772     0.7928342146    -0.1809473419
H     -6.4557631816     2.7625466388     0.9338102036
S      3.0407336481    -0.8825093672     3.7045758730
O      1.9324644249    -1.8788995920     3.9395342070
O      3.8563518556    -0.3532596068     4.8583564827
C     -8.5589720668    -1.7310130954    -2.6240385070
C     -9.6565837343    -2.5172019123    -2.2747148079
H     -9.6507630857    -3.5965730806    -2.4592257183
C    -10.7657700119    -1.8972148724    -1.6899816851
C    -10.8086706233    -0.5154046305    -1.4738844312
H    -11.7008942977    -0.0438760673    -1.0487832705
C     -9.7068567746     0.2606116157    -1.8351559151
C     -8.5781883822    -0.3461230996    -2.4071664654
H     -9.7400900942     1.3440509121    -1.6973995166
H     -7.6774482475    -2.1826261423    -3.0874715607
S    -12.2109657940    -2.9136873659    -1.2315734974
O    -12.1601696774    -4.1627924529    -2.0762321347
O    -13.4196048964    -2.0112724769    -1.2673616690
H    -13.0321851508    -1.7022746095     1.2885852670
C    -12.4796749756    -2.6171894425     1.5294303521
C    -12.2904668107    -3.0166812510     2.8571806108
H    -12.6891552903    -2.3994270465     3.6691908162
C    -11.5987077284    -4.2004562993     3.1425171345
H    -11.4553566480    -4.5091297365     4.1844836036
C    -11.0977737865    -4.9981847719     2.1061035123
H    -10.5652139033    -5.9280765369     2.3320011011
C    -11.2785710838    -4.6123676120     0.7732133370
H    -10.9063001496    -5.2335761638    -0.0489808192
C    -11.9687124900    -3.4247409689     0.5081602476
H     15.6241069007     0.9949013992     1.6131906325
