98
polyethersulfone conf_2580 from conf_2580.cosmo (coord_rad bohr -> angstrom)
O     10.3897236795     6.9104820096    -2.7704201131
H      9.7169962949     7.1069268856    -0.1643438877
C     10.6900058524     6.0254322795    -1.7779132744
C     10.2833633831     6.2120956503    -0.4427744141
C     11.4292374669     4.8799061078    -2.1264173942
C     10.6212935380     5.2751203393     0.5332908913
H     11.7488011462     4.7513280523    -3.1644402568
H      9.4867097887    -1.2432463832     0.1407430837
H     10.3218894642     5.4292238734     1.5756748349
H     11.3205344348     0.4312281082    -0.0042863311
C      9.4562641134    -0.3504630088     0.7699961848
C     11.7740500265     3.9390055549    -1.1593646570
C     10.4871354873     0.5863899215     0.6888457163
C     11.3559844273     4.1425265870     0.1626295160
C      6.0486211982    -2.0089936929    -1.4502732943
C      6.6712754419    -1.2581238259    -0.4523644970
C      5.6184032480    -3.3077201291    -1.1589899051
H      5.9036991402    -1.5871703076    -2.4505993464
C      6.8706582486    -1.8167909299     0.8203691841
C      5.7984184056    -3.8766873879     0.1069398355
H      7.0034974338    -0.2399380120    -0.6684289175
C      6.4210687631    -3.1162920609     1.0956448730
O      7.4059446401    -1.1012194674     1.8776552292
C      8.4071814333    -0.1627184101     1.6828811206
H      5.4729687952    -4.9014251454     0.3148598148
H      6.5878186570    -3.5330651625     2.0929815869
H     12.3671925407     3.0581689517    -1.4269675672
C     10.4542743938     1.7069772730     1.5262221400
S     11.8112728580     2.9252971181     1.4341018550
C      8.3973758622     0.9619379190     2.5196813692
C      9.4257637401     1.9017565787     2.4539910954
O     11.8416455198     3.6464838164     2.7598653448
O     13.0311139358     2.1898899485     0.9342437393
H      7.5805081531     1.0819206090     3.2367891730
H      9.4300630406     2.7721661453     3.1183903318
C      3.0308405245    -3.9917709560    -2.3617864998
C      2.4694184641    -2.9603023635    -3.1224494418
H      3.0940491753    -2.3407799309    -3.7745242465
C      2.2470943633    -4.8154190003    -1.5464980155
C      1.0951166813    -2.7407842743    -3.0384709205
H      2.7002751868    -5.6413155734    -0.9883301320
C      0.8718761569    -4.5900784120    -1.4771805190
C      0.2933544384    -3.5498122541    -2.2205111670
H      0.6228322785    -1.9466301395    -3.6233534510
O     -1.0733665642    -3.3318019067    -2.2709834285
H      0.2471221851    -5.2454484227    -0.8657012307
H     -3.4906570622    -4.2083872191    -2.4159117754
C     -1.8796573617    -3.5194848538    -1.1608239546
C     -3.1919003423    -3.9545052034    -1.3948840179
C     -1.4690116043    -3.1896176577     0.1407017939
C     -4.0938522915    -4.0890344422    -0.3403815385
H     -0.4528656350    -2.8339018347     0.3270444456
H     -5.5142245790     0.5773861538     4.2148318371
H     -5.1102592575    -4.4549067993    -0.5198351474
H     -4.2844743541    -1.5944332568     3.9730579092
C     -5.8831270085    -0.1967881968     3.5361747615
C     -2.3626876061    -3.3193357587     1.2046327506
C     -5.1993887580    -1.4046192860     3.4021201945
C     -3.6643667342    -3.7649479341     0.9514385106
O     -7.7368852949     1.2189805031     3.0810239633
C     -7.0654440282     0.0359380542     2.8196272750
H     -2.0458444975    -3.0790984139     2.2252273509
C     -5.7096262618    -2.3688591827     2.5262447186
S     -4.8267847137    -3.9557255424     2.3450527598
C     -7.5731245657    -0.9511510623     1.9601710896
C     -6.8942905579    -2.1610195799     1.8114059351
O     -3.9982503509    -4.1471007399     3.5911763630
O     -5.8477219847    -4.9876272536     1.9337869598
H     -8.5129234975    -0.7890652120     1.4269293760
H     -7.2981910586    -2.9442933834     1.1611755470
S      4.8261242486    -4.2977561656    -2.4703149820
O      5.2930581635    -3.7389732900    -3.7915878766
O      5.0494743526    -5.7499703003    -2.1276467874
C     -8.0099492759     1.9356057548     0.7552503036
C     -8.7134448733     2.7039194235    -0.1730457486
H     -8.3717745577     2.7656153807    -1.2118081052
C     -9.8420053359     3.4155057916     0.2477863241
C    -10.2730185635     3.3928726559     1.5787397416
H    -11.1438597379     3.9760472249     1.8961202368
C     -9.5661841370     2.6153091934     2.4949914211
C     -8.4383461526     1.8862475074     2.0913128959
H     -9.8722606593     2.5780133751     3.5442374605
H     -7.1119191234     1.3976195670     0.4425960358
S    -10.7543995557     4.4325035302    -0.9617750294
O     -9.7830788390     4.8000879152    -2.0564477096
O    -11.4773307574     5.5048892116    -0.1847820738
H    -10.7164290640     2.7183396319    -3.3172356725
C    -11.7083325108     2.6263178031    -2.8611435204
C    -12.6885546661     1.8036047177    -3.4273379241
H    -12.4574581768     1.2321758790    -4.3325561841
C    -13.9570272201     1.7164210129    -2.8402127721
H    -14.7212210495     1.0716030153    -3.2893601296
C    -14.2597621551     2.4551169264    -1.6895100653
H    -15.2555503290     2.3922629369    -1.2380574201
C    -13.2903595325     3.2822346002    -1.1112516350
H    -13.5162100773     3.8785850391    -0.2202790293
C    -12.0277873344     3.3527819207    -1.7094399843
H      9.8761869205     7.6562054934    -2.4031296195
