98
polyethersulfone conf_810 from conf_810.cosmo (coord_rad bohr -> angstrom)
O    -17.8905581103     2.3304355665    -0.8639396088
H    -17.1370078017    -0.0349066881    -1.9248999090
C    -16.8863352243     1.5185953895    -0.4268069285
C    -16.5606081408     0.3020958743    -1.0568736869
C    -16.1511747518     1.9385482043     0.6971500329
C    -15.5224771834    -0.4890912081    -0.5655314994
H    -16.4208285115     2.8796418925     1.1847658175
H     -9.3731409225     1.6415510995     0.5848385612
H    -15.2806792828    -1.4444845559    -1.0437991018
H    -11.4533721036     0.9688861681     1.7710504050
C     -9.9814320571     0.8243044629     0.1902326550
C    -15.1143605091     1.1551460226     1.1976360992
C    -11.1527565256     0.4540826898     0.8523743508
C    -14.8035393753    -0.0493488290     0.5522270321
C     -5.3527262156     2.3794125734    -1.3762729343
C     -6.5769235527     1.9205226575    -1.8601928914
C     -4.8806314882     1.8709683261    -0.1609444631
H     -4.7821712625     3.1329888158    -1.9293236632
C     -7.3239601204     0.9806572152    -1.1351408785
C     -5.6054549087     0.9255687101     0.5722870436
H     -6.9806263141     2.3049479707    -2.8010842780
C     -6.8291948365     0.4738544833     0.0767151842
O     -8.4870854061     0.5172192884    -1.7261578024
C     -9.5895144716     0.1450839778    -0.9737779505
H     -5.2222645589     0.5465726532     1.5255384270
H     -7.3973864595    -0.2711212686     0.6385918340
H    -14.5548819871     1.4729830957     2.0838122731
C    -11.9303634101    -0.5851426932     0.3301559404
S    -13.4554599092    -1.0810322509     1.2031743415
C    -10.3876378868    -0.8875639919    -1.4861350777
C    -11.5613152110    -1.2657512159    -0.8350154974
O    -13.7448940766    -2.5078096732     0.8041354413
O    -13.2707526113    -0.7145020567     2.6557796414
H    -10.0646122073    -1.4059391548    -2.3933373205
H    -12.1729904460    -2.0883991270    -1.2199361402
C     -1.9884589662     1.3756822264    -0.1558182330
C     -1.3635619709     1.7020411038    -1.3645656253
H     -1.6447356981     2.6055001668    -1.9158579086
C     -1.6281643774     0.2388232280     0.5754559794
C     -0.3598583943     0.8617004706    -1.8442198681
H     -2.1242079339     0.0053235471     1.5234028128
C     -0.6223698133    -0.5943875737     0.0842348939
C      0.0230672581    -0.2771554612    -1.1210446004
H      0.1568231537     1.0925409797    -2.7800444650
O      0.9672467686    -1.1027236495    -1.7083680715
H     -0.3412070490    -1.4893742629     0.6442337706
H      2.1661253141    -0.3360933254     0.6086026762
C      1.8807627558    -1.8186115328    -0.9528500924
C      2.4705527689    -1.3084646122     0.2142813197
C      2.2935225430    -3.0570905186    -1.4648935557
C      3.4496271594    -2.0470130558     0.8800070166
H      1.8206226879    -3.4381038344    -2.3744228174
H      8.9573926014    -4.5447692902    -1.8615301475
H      3.9007002244    -1.6617432104     1.8005836467
H      6.7193163757    -5.2571766287    -0.9872503007
C      8.5080694732    -4.0339490017    -1.0052635826
C      3.2715381354    -3.8041985269    -0.8099781238
C      7.2629651157    -4.4299306801    -0.5188772878
C      3.8401868726    -3.2849975030     0.3582976061
O     10.4865753818    -2.7275671753    -0.8735585964
C      9.2154002374    -2.9902500386    -0.3912705676
H      3.5758660899    -4.7833010520    -1.1944569941
C      6.7292393236    -3.7514055330     0.5825716820
S      5.1047748947    -4.2636996017     1.2367094266
C      8.6724130144    -2.3335682532     0.7242645536
C      7.4234372163    -2.7151625593     1.2157097385
O      4.9017736194    -5.7057450312     0.8427204143
O      5.0600587284    -3.8485171044     2.6865395819
H      9.2337756480    -1.5436554084     1.2288922511
H      7.0032559406    -2.2237865574     2.0995852516
S     -3.2896523759     2.4768947883     0.4950841114
O     -3.0542383213     3.8425109743    -0.1012702772
O     -3.3250421405     2.2863540360     1.9912694784
C     10.2451997732    -0.3012418959    -1.1070067296
C     10.8611958155     0.9487180450    -1.1801069129
H     10.2688434539     1.8456234737    -1.3899560729
C     12.2468999352     1.0364069846    -1.0105374506
C     13.0349206452    -0.0983721652    -0.7879463220
H     14.1218898294    -0.0162389053    -0.6827007857
C     12.4064834416    -1.3403427163    -0.7086913338
C     11.0172208960    -1.4487156309    -0.8663663513
H     12.9918443741    -2.2486448145    -0.5403871296
H      9.1673161704    -0.3828798718    -1.2656507437
S     13.0556409538     2.6686420285    -1.1234630506
O     12.1547519697     3.5540721748    -1.9488684597
O     14.4861559023     2.4287918419    -1.5387817300
H     15.0448654759     2.5149254009     0.9965880743
C     14.2052701211     3.1058639927     1.3789675090
C     14.2294257985     3.6408145779     2.6718457141
H     15.0946333530     3.4556225648     3.3172191909
C     13.1544994411     4.4107943960     3.1332622720
H     13.1799010108     4.8286882118     4.1462961928
C     12.0520114679     4.6596941590     2.3061810086
H     11.2171511329     5.2701390168     2.6663373043
C     12.0128753569     4.1319156074     1.0107579125
H     11.1648732671     4.3312227396     0.3461128645
C     13.0937005921     3.3614051051     0.5692712270
H    -18.3178688137     1.9347554794    -1.6484408878
