98
polyethersulfone conf_9010 from conf_9010.cosmo (coord_rad bohr -> angstrom)
O     15.3568112788    -5.3667594625    -1.2785194964
H     13.4700582545    -6.3185744592     0.2001631814
C     14.5181848379    -4.5825081293    -0.5434802515
C     13.5217936282    -5.2261932643     0.2138033641
C     14.6075974238    -3.1773356450    -0.5247939405
C     12.6331520244    -4.4864429667     0.9897886812
H     15.3875246567    -2.6702987784    -1.1026220555
H      7.0902487165    -2.9529658988     0.0947248478
H     11.8711892789    -4.9896997361     1.5944385509
H      9.0642991351    -3.5179392002     1.5322424375
C      7.9596483553    -2.2903259544     0.1284355967
C     13.7211862744    -2.4265296573     0.2471009335
C      9.0591665027    -2.6059269138     0.9260696909
C     12.7366984639    -3.0886861874     0.9896481842
C      5.1423153451     1.7978257227    -3.2390227140
C      5.7513485014     0.5789162198    -2.9450263771
C      5.1152419810     2.7876738425    -2.2496034091
H      4.7093446534     1.9791793296    -4.2284993937
C      6.3375347251     0.3580409489    -1.6900188167
C      5.6840257215     2.5829919156    -0.9884323781
H      5.8003262734    -0.2126477430    -3.6980600301
C      6.2913669632     1.3586039012    -0.7067739435
O      6.8488788661    -0.9064516208    -1.4534094427
C      7.9391550625    -1.1056900431    -0.6210385238
H      5.6583684548     3.3744946872    -0.2321571396
H      6.7314465542     1.1877513585     0.2784552831
H     13.8010225407    -1.3344652474     0.2768130068
C     10.1441410341    -1.7227267669     0.9500698988
S     11.5836639117    -2.1145450914     2.0029997421
C      9.0410379445    -0.2370570438    -0.5928911318
C     10.1473341038    -0.5410565121     0.2016155933
O     12.2612248067    -0.8044384584     2.3242730122
O     11.0881953670    -3.0123488491     3.1106441214
H      9.0383910132     0.6790393014    -1.1884194577
H     11.0036245321     0.1403528974     0.2411233420
C      2.5716879588     4.2531436662    -2.2032421516
C      2.1565364336     4.5598537194    -0.9026681854
H      2.8787941407     4.8892763811    -0.1483655533
C      1.6612996298     3.8751436320    -3.1961607034
C      0.8009633656     4.4693771916    -0.5845760115
H      2.0007519458     3.6627961546    -4.2153520667
C      0.3106877473     3.7816978942    -2.8636195240
C     -0.1249532437     4.0774505430    -1.5637412297
H      0.4637551113     4.7340462826     0.4203640983
O     -1.4919083617     4.0604765211    -1.3455949496
H     -0.4280883206     3.4947501379    -3.6170748277
H     -0.5840635980     2.1751868516     0.3878046835
C     -2.0293479450     3.7170754510    -0.1159913670
C     -1.4989647167     2.6932842170     0.6849843137
C     -3.2159484065     4.3616141366     0.2613518091
C     -2.1428666820     2.3353069383     1.8702107648
H     -3.6105252187     5.1579106661    -0.3761408171
H     -5.6346274926    -2.1462428566     3.2132634283
H     -1.7282724956     1.5486937239     2.5095990857
H     -3.9491994677    -0.3715160456     3.7524974382
C     -5.9076866208    -1.0884929555     3.1643101145
C     -3.8683923392     4.0136384034     1.4433033867
C     -4.9704820357    -0.1009277683     3.4642250568
C     -3.3201314440     2.9974014296     2.2339139859
O     -8.1145223133    -1.7840993282     2.6322548472
C     -7.2216527755    -0.7420741973     2.8173363302
H     -4.7805078346     4.5359446980     1.7506180526
C     -5.3647068624     1.2400416920     3.3948564127
S     -4.1512119239     2.5428921835     3.7936345276
C     -7.6034250138     0.6074909870     2.7699228401
C     -6.6728267413     1.6058215138     3.0600813028
O     -4.9319849010     3.7504334867     4.2500765564
O     -3.1064211282     1.9198003386     4.6859099224
H     -8.6343930435     0.8823394239     2.5348579960
H     -6.9709020526     2.6593688923     3.0477461189
S      4.3404965290     4.3952118435    -2.6276550671
O      4.9445352569     5.4082934157    -1.6867393097
O      4.4216872708     4.5895053885    -4.1215500360
C     -9.0323501695    -1.0577613371     0.4821641278
C    -10.0963064018    -1.0809055602    -0.4205437333
H    -10.0120514239    -0.5752004732    -1.3883943070
C    -11.2723129623    -1.7530104904    -0.0721868504
C    -11.4130272908    -2.4013813844     1.1600537652
H    -12.3465257488    -2.9083429309     1.4263711380
C    -10.3427761592    -2.3715631064     2.0530717357
C     -9.1593262252    -1.6937046510     1.7274100202
H    -10.4214925048    -2.8585315555     3.0292019793
H     -8.1065589285    -0.5428744597     0.2147462717
S    -12.6710565530    -1.7674882186    -1.2448632476
O    -12.5009015742    -0.5737383077    -2.1517997027
O    -13.9310790215    -1.9425775513    -0.4336146994
H    -13.6668424294    -4.4893644057    -0.9348689163
C    -13.0791277512    -4.4583755790    -1.8590038754
C    -12.9304766802    -5.5985155770    -2.6566025033
H    -13.3968047137    -6.5395106938    -2.3460873987
C    -12.1933749511    -5.5327402376    -3.8455827386
H    -12.0820806305    -6.4288092384    -4.4670237536
C    -11.6063793405    -4.3278171524    -4.2516917724
H    -11.0385941945    -4.2767622227    -5.1867528083
C    -11.7458963906    -3.1789402548    -3.4650483115
H    -11.3060855419    -2.2249777750    -3.7764388519
C    -12.4817995903    -3.2652067468    -2.2786246781
H     15.9966828542    -4.8072904174    -1.7602521486
