98
polyethersulfone conf_1190 from conf_1190.cosmo (coord_rad bohr -> angstrom)
O    -14.4050362430     5.4548321073    -0.5031442495
H    -13.8217891559     4.1927178094    -2.6763025427
C    -13.9174096832     4.1818267029    -0.5184413829
C    -13.6280405730     3.6099027749    -1.7713391181
C    -13.6890766700     3.4385548726     0.6554041235
C    -13.1284237729     2.3131429127    -1.8597609386
H    -13.9257967397     3.8726868076     1.6325674295
H     -7.8334428974     0.0520672704     1.4362788382
H    -12.9227439085     1.8628845702    -2.8367943281
H    -10.3159650002    -0.1102905136     1.4034513315
C     -8.3648400430     0.0683459024     0.4817436994
C    -13.1859810753     2.1400080358     0.5785591377
C     -9.7578668518    -0.0146208450     0.4661069681
C    -12.9010903295     1.5939520708    -0.6781566773
C     -3.2957884982    -0.2212406972     1.2663101837
C     -4.2465890785     0.3804513332     0.4435637985
C     -3.5435602981    -1.5149569849     1.7398311400
H     -2.3825860346     0.3147881071     1.5459524760
C     -5.4317017428    -0.2923229742     0.1112512751
C     -4.7140653162    -2.2066059679     1.4115676788
H     -4.0903634527     1.3943661745     0.0646844753
C     -5.6580863341    -1.5933158338     0.5868924397
O     -6.2817528778     0.3440561937    -0.7767070115
C     -7.6555427078     0.1692311318    -0.7250015264
H     -4.8919276958    -3.2147172717     1.8003871469
H     -6.5708459886    -2.1304366817     0.3186508725
H    -13.0231839475     1.5537699367     1.4893315491
C    -10.4285975664     0.0206641522    -0.7609762170
S    -12.2506790829    -0.1007653404    -0.7840674776
C     -8.3468669647     0.2113987384    -1.9440223904
C     -9.7386544449     0.1304803014    -1.9732756771
O    -12.6375258445    -0.6485592261    -2.1363981863
O    -12.6591023173    -0.8195523429     0.4789425730
H     -7.7760943269     0.2878896839    -2.8737894572
H    -10.2770514094     0.1375133304    -2.9268298870
C     -1.1360371249    -3.1918475959     1.7603279833
C      0.0282290545    -2.5392832205     1.3422926467
H      0.2261223159    -1.5067918731     1.6492584879
C     -1.4119264981    -4.5139687357     1.3930557044
C      0.9382535259    -3.2215206723     0.5336764854
H     -2.3181886394    -5.0191368922     1.7435647712
C     -0.4952038756    -5.1843624578     0.5843204093
C      0.6827118280    -4.5512640690     0.1631232596
H      1.8461575448    -2.7168917212     0.1946857534
O      1.4989229045    -5.2549676940    -0.7072946570
H     -0.6733963118    -6.2215127677     0.2863841512
H      3.0732274519    -4.8602689684     1.4739116333
C      2.8771499490    -5.1287746992    -0.6717833880
C      3.5973469376    -4.9522249641     0.5197197094
C      3.5583485040    -5.2896448732    -1.8871894639
C      4.9922743325    -4.9311142490     0.4943261196
H      2.9792092255    -5.4429813247    -2.8020231939
H      8.8011085460    -1.1694898127    -3.4929801327
H      5.5599367594    -4.8178467175     1.4238139975
H      8.0596265355    -3.5431517495    -3.1740412760
C      8.6243102787    -1.5659080801    -2.4892824429
C      4.9518704186    -5.2778401165    -1.9250187582
C      8.2117066818    -2.8857379405    -2.3116007249
C      5.6527572964    -5.0858919888    -0.7291219758
O      9.3480598462     0.5300827206    -1.6409093107
C      8.8418848045    -0.7326219914    -1.3824551064
H      5.4849133224    -5.4218011382    -2.8707030825
C      8.0042927177    -3.3532593480    -1.0092169881
S      7.4763707611    -5.0817206699    -0.7624604040
C      8.6439202246    -1.2239551194    -0.0828512642
C      8.2238673243    -2.5407366083     0.1083170791
O      7.9000091927    -5.8540321485    -1.9872222267
O      7.9462104772    -5.4982411463     0.6094756838
H      8.8453229078    -0.5901746592     0.7840163534
H      8.0915377930    -2.9369187818     1.1205104894
S     -2.3177087480    -2.3076614246     2.8338567271
O     -1.5509099515    -1.2042609794     3.5197625715
O     -3.0535418467    -3.3493080589     3.6397972033
C     10.0098738230     2.6061695684    -0.6942948148
C      9.7392631182     3.7740625882     0.0173885169
H     10.5166465970     4.5322440501     0.1596862280
C      8.4603960060     3.9438841053     0.5599668402
C      7.4621028141     2.9760185964     0.4089384868
H      6.4706449623     3.1281382501     0.8487650029
C      7.7456226996     1.8108804185    -0.3049314113
C      9.0260075993     1.6189670966    -0.8480060941
H      6.9690132986     1.0535189362    -0.4354415577
H     11.0013492370     2.4355730194    -1.1232946906
S      8.0967699015     5.4594214928     1.5101818466
O      9.4069754410     5.9648899622     2.0617711557
O      6.9476306870     5.1373899531     2.4334265660
H      5.4265843831     6.1013480714     0.5358913858
C      6.1297348349     6.7747090280     0.0332470124
C      5.6796416984     7.7332087468    -0.8815370233
H      4.6105519809     7.8033981295    -1.1083291408
C      6.5917213575     8.5986282777    -1.4984454623
H      6.2324869062     9.3484760219    -2.2127252735
C      7.9579977358     8.5198750480    -1.2013550575
H      8.6682232574     9.2041016674    -1.6775542036
C      8.4237579138     7.5667683606    -0.2887072548
H      9.4871063926     7.5026817847    -0.0327343188
C      7.4986481987     6.7078634212     0.3135587176
H    -14.5520083276     5.7413826867     0.4192692025
