98
polyethersulfone conf_4540 from conf_4540.cosmo (coord_rad bohr -> angstrom)
O     14.0208481576     0.6807344603     1.1800383000
H     13.9170625066    -1.6712681411    -0.1393574849
C     13.1531544425     0.3362627970     0.1866209434
C     13.1716577826    -0.9262595202    -0.4367944364
C     12.2015789325     1.2941455028    -0.2097716389
C     12.2602596842    -1.2248799163    -1.4491935492
H     12.2041190621     2.2749727522     0.2741142485
H      7.4554317431    -4.4842449405    -1.5491285980
H     12.2872272624    -2.2001607821    -1.9472909346
H      9.4550721323    -3.4326590233    -2.6381935470
C      7.5268575589    -3.3972896870    -1.6467865484
C     11.2882076760     1.0074303531    -1.2211934592
C      8.6391676167    -2.8125261285    -2.2526136278
C     11.3215364196    -0.2566029553    -1.8250277229
C      2.5618222317    -2.7496752454     1.6310843494
C      3.3110628539    -3.1121409448     0.5131888682
C      3.1915957330    -2.0304818730     2.6535655565
H      1.5052280749    -3.0273214225     1.7074007988
C      4.6704535756    -2.7764340470     0.4244235199
C      4.5478129675    -1.6945590584     2.5890415350
H      2.8526086505    -3.6786763865    -0.3022446841
C      5.2892971570    -2.0696836026     1.4679450996
O      5.3583461259    -3.2579763388    -0.6744848812
C      6.4742276785    -2.6024615115    -1.1738091552
H      5.0288774841    -1.1632004942     3.4171479360
H      6.3547797942    -1.8333248172     1.4208974274
H     10.5596200047     1.7590689428    -1.5428677037
C      8.6868327049    -1.4190940033    -2.3610617001
S     10.1371292836    -0.6381827847    -3.1500609637
C      6.5306855457    -1.2065712915    -1.3086578989
C      7.6410502333    -0.6085378460    -1.9056708716
O     10.7695016434    -1.6835972247    -4.0364979221
O      9.6710688784     0.6758189604    -3.7285134306
H      5.6956253039    -0.5861350884    -0.9738481048
H      7.6810456187     0.4782053789    -2.0350558129
C      1.5112088929     0.0893321348     3.7851213429
C      2.2306518515     1.2333173482     4.1484419074
H      3.2095864965     1.1513841798     4.6323392950
C      0.2448853831     0.1721520472     3.1965665898
C      1.6711924729     2.4830592168     3.8866727958
H     -0.3167155517    -0.7363460840     2.9543748669
C     -0.3080607148     1.4290226674     2.9477366006
C      0.4071829175     2.5880669764     3.2881562386
H      2.2035932554     3.3980045975     4.1613712945
O     -0.1165635361     3.8626380679     3.1555510948
H     -1.3080241835     1.5032659164     2.5138681795
H     -2.0581484112     5.5343097153     3.4039638095
C     -0.9686312067     4.1937406757     2.1151259284
C     -1.9616524398     5.1458050786     2.3862366001
C     -0.8073674617     3.6966615158     0.8121947590
C     -2.7986899301     5.6061423459     1.3705810346
H     -0.0120916866     2.9817533655     0.5880531797
H     -6.1921064816     1.6849957707    -2.8081556698
H     -3.5635659138     6.3620043840     1.5773888386
H     -4.2222680932     3.2028718820    -2.7240980285
C     -6.2118934811     2.5638594441    -2.1591371806
C     -1.6436270289     4.1434323155    -0.2115198043
C     -5.1073554583     3.4151131892    -2.1154964115
C     -2.6356320161     5.0850508701     0.0824080048
O     -8.5149844079     2.1026369611    -1.4718188597
C     -7.3551631204     2.8582795861    -1.4005507987
H     -1.5086609482     3.7775179545    -1.2348508780
C     -5.1613270319     4.5559140990    -1.3072147708
S     -3.7238760484     5.6783543977    -1.2559989122
C     -7.3931593799     4.0119466123    -0.6050362495
C     -6.2988688311     4.8753019479    -0.5582669336
O     -2.9728981986     5.4989978538    -2.5522065491
O     -4.2352627165     7.0366360334    -0.8448931695
H     -8.2999624967     4.2333835909    -0.0353761664
H     -6.3322801091     5.7858362248     0.0491110362
S      2.2271612575    -1.5535513401     4.1256582123
O      1.0773162478    -2.5239653385     4.2384390174
O      3.2046856401    -1.3851114495     5.2626145341
C     -7.4939481636    -0.0497204867    -0.9021150724
C     -7.5653648024    -1.4426647754    -0.9481135487
H     -6.7955829614    -2.0518194038    -0.4621664649
C     -8.6268647865    -2.0501497753    -1.6264510542
C     -9.6190970401    -1.2978712819    -2.2656929897
H    -10.4349396040    -1.7881323570    -2.8073848773
C     -9.5373468650     0.0926513133    -2.2125359226
C     -8.4749631800     0.7211606703    -1.5464779954
H    -10.2897490699     0.7117293317    -2.7093433916
H     -6.6724902917     0.4323373569    -0.3670264743
S     -8.7113809614    -3.8713382249    -1.7003976910
O     -7.3068084967    -4.3883127259    -1.5086541747
O     -9.5006240870    -4.2318012781    -2.9347254504
H    -11.5627500138    -4.3598125770    -1.3503478555
C    -11.0764769144    -4.5560247329    -0.3883809021
C    -11.8181932232    -4.9740503962     0.7222356022
H    -12.9030320439    -5.0945927796     0.6331000736
C    -11.1743252295    -5.2396258970     1.9372175987
H    -11.7604662346    -5.5684567986     2.8031430235
C     -9.7856480209    -5.0982375938     2.0509431970
H     -9.2833937203    -5.3158075670     2.9994838172
C     -9.0299954924    -4.6811180578     0.9495269661
H     -7.9410802476    -4.5811188083     1.0181295594
C     -9.6912664923    -4.4161465108    -0.2543634199
H     14.6211081643    -0.0669099073     1.3682426384
